 
 $CONTRL SCFTYP=ROHF MULT=1 ICHARG=0 RUNTYP=OPTIMIZE MAXIT=70 ECP=READ $END
 $CONTRL COORD=UNIQUE $END
 $DFT DFTTYP=SVWN $END
 $SCF DIRSCF=.T. SOSCF=.F.  $END
 $DATA

CN 3

H 1.0 -0.8796102553  -0.5078432177 1.1532386695
S 9
1 0.013000 0.000706
2 0.029900 -0.002119
3 0.068770 0.057693
4 0.158170 0.230695
5 0.363792 0.277612
6 0.836721 0.169833
7 1.924458 0.097443
8 4.426254 0.029966
9 10.180385 -0.000452
S 1
1 0.170654 1.000000
P 9
1 0.003000 0.001242
2 0.007800 -0.000913
3 0.020281 -0.000054
4 0.052730 -0.000238
5 0.137097 -0.011530
6 0.356451 -0.018235
7 0.926774 -0.013929
8 2.409612 -0.009395
9 6.264991 -0.000347
P 1
1 0.495357 1.000000
D 1
1 0.955745 1.000000

H 1.0 -0.0  -1.0156864354 -1.1532386695
S 9
1 0.013000 0.000706
2 0.029900 -0.002119
3 0.068770 0.057693
4 0.158170 0.230695
5 0.363792 0.277612
6 0.836721 0.169833
7 1.924458 0.097443
8 4.426254 0.029966
9 10.180385 -0.000452
S 1
1 0.170654 1.000000
P 9
1 0.003000 0.001242
2 0.007800 -0.000913
3 0.020281 -0.000054
4 0.052730 -0.000238
5 0.137097 -0.011530
6 0.356451 -0.018235
7 0.926774 -0.013929
8 2.409612 -0.009395
9 6.264991 -0.000347
P 1
1 0.495357 1.000000
D 1
1 0.955745 1.000000

C 6.0 0. 0.  -0.7688385534
S 9
1 0.051344 0.013991
2 0.102619 0.169852
3 0.205100 0.397529
4 0.409924 0.380369
5 0.819297 0.180113
6 1.637494 -0.033512
7 3.272791 -0.121499
8 6.541187 0.015176
9 13.073594 -0.000705
S 1
1 0.921552 1.000000
S 1
1 0.132800 1.000000
P 9
1 0.029281 0.001787
2 0.058547 0.050426
3 0.117063 0.191634
4 0.234064 0.302667
5 0.468003 0.289868
6 0.935757 0.210979
7 1.871016 0.112024
8 3.741035 0.054425
9 7.480076 0.021931
P 1
1 0.126772 1.000000
P 1
1 0.376742 1.000000
D 1
1 0.329486 1.000000
D 1
1 1.141611 1.000000
F 1
1 0.773485 1.000000

C 6.0 0. 0.  0.7688385534
S 9
1 0.051344 0.013991
2 0.102619 0.169852
3 0.205100 0.397529
4 0.409924 0.380369
5 0.819297 0.180113
6 1.637494 -0.033512
7 3.272791 -0.121499
8 6.541187 0.015176
9 13.073594 -0.000705
S 1
1 0.921552 1.000000
S 1
1 0.132800 1.000000
P 9
1 0.029281 0.001787
2 0.058547 0.050426
3 0.117063 0.191634
4 0.234064 0.302667
5 0.468003 0.289868
6 0.935757 0.210979
7 1.871016 0.112024
8 3.741035 0.054425
9 7.480076 0.021931
P 1
1 0.126772 1.000000
P 1
1 0.376742 1.000000
D 1
1 0.329486 1.000000
D 1
1 1.141611 1.000000
F 1
1 0.773485 1.000000

 $END
 $ECP
H-DOLG GEN 0 1
3  P 
1.00000000      1       4.47692410
4.47692410      3       2.97636451
-4.32112340     2       3.01841596
1  S-P
0.000        2   0.0000
H-DOLG
H-DOLG
H-DOLG
H-DOLG
H-DOLG
C-DOLG GEN 2 1
3 P
4.00000000	1	8.35973821
33.43895285	3	4.48361888
-19.17537323	2	3.93831258
1 S-P
22.55164191	2	5.02991637
C-DOLG
 $END
 
