!coords from: http://long-march.mit.edu/liju99/Papers/QC.ps
 $CONTRL SCFTYP=ROHF MULT=1 ICHARG=0 RUNTYP=ENERGY MAXIT=70 ECP=READ $END
 $SYSTEM KDIAG=3 $END
 $SCF DIRSCF=.T. SOSCF=.F.  $END
 $DATA

C1
H 1.0 -0.8796102553  -0.5078432177 1.1532386695
 S   3
  1        18.73113700         0.3349460000E-01
  2        2.825393700         0.2347269500
  3       0.6401217000         0.8137573300
 S   1
  1       0.1612778000          1.000000000

H 1.0 0.8796102553  -0.5078432177 1.1532386695
 S   3
  1        18.73113700         0.3349460000E-01
  2        2.825393700         0.2347269500
  3       0.6401217000         0.8137573300
 S   1
  1       0.1612778000          1.000000000

H 1.0 -0.0  -1.0156864354 -1.1532386695
 S   3
  1        18.73113700         0.3349460000E-01
  2        2.825393700         0.2347269500
  3       0.6401217000         0.8137573300
 S   1
  1       0.1612778000          1.000000000

H 1.0 0.8796102553  0.5078432177 -1.1532386695
 S   3
  1        18.73113700         0.3349460000E-01
  2        2.825393700         0.2347269500
  3       0.6401217000         0.8137573300
 S   1
  1       0.1612778000          1.000000000

H 1.0 -0.8796102553  0.5078432177 -1.1532386695
 S   3
  1        18.73113700         0.3349460000E-01
  2        2.825393700         0.2347269500
  3       0.6401217000         0.8137573300
 S   1
  1       0.1612778000          1.000000000

H 1.0 0.0 1.0156864354 1.1532386695
 S   3
  1        18.73113700         0.3349460000E-01
  2        2.825393700         0.2347269500
  3       0.6401217000         0.8137573300
 S   1
  1       0.1612778000          1.000000000

C 6.0 0. 0.  -0.7688385534
 S   5
   1       8.1380377          0.11795918E-01
   2       3.3151758         -0.15198125
   3      0.66827631          0.27552348
   4      0.29176766          0.54864514
   5      0.11411349          0.30121511
 S   1
  1       0.9059000000          1.000000000
 S   1
  1       0.1285000000          1.000000000
 P   5
   1       8.5281305          0.23512401E-01
   2       2.9014509          0.11648574
   3      0.94312090          0.32777384
   4      0.31558555          0.49260154
   5      0.10393611          0.27312428
 P   1
  1       0.3827000000          1.000000000
 P   1
  1       0.1209000000          1.000000000
 D   1
  1       0.5500000000          1.000000000

C 6.0 0. 0.  0.7688385534
 S   5
   1       8.1380377          0.11795918E-01
   2       3.3151758         -0.15198125
   3      0.66827631          0.27552348
   4      0.29176766          0.54864514
   5      0.11411349          0.30121511
 S   1
  1       0.9059000000          1.000000000
 S   1
  1       0.1285000000          1.000000000
 P   5
   1       8.5281305          0.23512401E-01
   2       2.9014509          0.11648574
   3      0.94312090          0.32777384
   4      0.31558555          0.49260154
   5      0.10393611          0.27312428
 P   1
  1       0.3827000000          1.000000000
 P   1
  1       0.1209000000          1.000000000
 D   1
  1       0.5500000000          1.000000000

 $END
 $ECP
H-ECP NONE
H-ECP NONE
H-ECP NONE
H-ECP NONE
H-ECP NONE
H-ECP NONE
C-LES GEN 2 1
7       P
 -16.7554933 2   7.71902471
 -0.318937855 2   2184.3154
 -2.90449512 2   20.7770051
 -1.24269724 2   76.3948299
 -0.601986071 2   351.761231
  0.218138855 2   3.95786259
  4. 1   5.992468
3     S-P
  27.006964 2   5.74118955
  8.57269969 2   5.12564415
 -6.3364597 2   4.68309865
C-LES
 $END
