!Yoon ECP on Titanium, Lester on Oxygen
 $CONTRL SCFTYP=ROHF MULT=6 ICHARG=0  RUNTYP=ENERGY MAXIT=70 ECP=READ $END
 $SYSTEM KDIAG=3 $END
 $SCF DIRSCF=.T. RSTRCT=.F. SOSCF=.F.  $END
 $GUESS GUESS=MOREAD NORDER=1 IORDER(8)=9,8 $END
 $DATA

C1
MN 25. 0. 0. -.0675725099 
S 7 1.
  1      37.267155        0.39037801E-01
  2      23.295664       -0.25834960
  3      14.061365        0.76279390
  4      9.9303875       -0.24825741
  5      7.9979882       -0.61830252
  6      1.9205208        0.51014656
  7      1.0861154        0.38060132
S   1
  1        1.765983000          1.000000000   
S   1
  1       0.7137740000          1.000000000   
S 1 1.
  1       .25                   1.
S   1   1.
  1       .1                    1.
S   1   1.
  1       .04                   1.
P 7 1.
  1      50.453613        0.28731674E-02
  2      20.993099       -0.32531628
  3      18.158922        0.53472191
  4      12.328713       -0.24152134
  5      4.5823927       -0.10436746
  6      3.3082843        0.41230637
  7      1.3713011        0.51765233
P   1 1.
  1        1.765983000          1.000000000
P   1 1.
  1       0.7137740000          1.000000000
P 1 1.
  1       .25                   1.
P   1   1.
  1       .1                   1.
P   1   1.
  1       .04                  1.
D 5 1.
  1      27.851509       -0.84132208E-02
  2      16.152140        0.85403956E-01
  3      5.6169748        0.21698587
  4      2.1590731        0.39649862
  5      0.77049690        0.43369588
D 1 1.
  1      0.27   1.
D 1 1.
  1      0.07   1.
F   1 1.
  1        1.800000000          1.000000000

O  8.  0. 0. 1.6675725099
S 7 1.
   1     19.447813        0.23837024E-02
   2     12.420972        0.14954804E-01
   3     6.1715364       -0.17688230
   4     4.0532336        0.27786544E-01
   5     1.1199164        0.39952806
   6    0.43257234        0.56537366
   7    0.15980007        0.15779860
S 1 1.
1         0.295000000  1.00000000
S 1 1.
1         0.0978000000 1.00000000
P 7 1.
   1     62.841007       -0.13814421E-03
   2     24.321384        0.76169823E-02
   3     9.3865118        0.70101440E-01
   4     3.2627614        0.19551891
   5     1.2486125        0.35298672
   6    0.46735620        0.41737372
   7    0.16023938        0.21061262
P 1 1.
1         0.240000000  1.00000000
P 1 1.
1         0.080000000  1.00000000
D 1 1.
1         0.9800000000 1.00000000

 $END
 $ECP
MN-ECP GEN 10 2
11      D
  6414.98369 2 138.285553
  4352.98345 2 81.9172716 
  4242.28523 2 17.7328935  
 -4.07742092 2 7749.96944 
 -2222.65038 2 16.3824906
 -5461.95518 2 99.2406454
  7265.55593 2 30.9265869
 -4470.82724 2 147.0145
 -5812.86306 2 23.5011807
 -4381.7868  2 40.1680914
  15.        1 18.  
10     S-D
 -12638.2625 2  13.2868202
  27155.593  2  24.4109053
 -46214.1202 2  21.2041228
  20923.3938 2  27.7810677
  1654.36426 2  10.9523854
 -20006.196  2  34.2304514
  4712.00229 2  51.2910259
  25417.5192 2  15.6039936
  12187.553  2  88.8560066
 -13133.5166 2  87.6174717
10     P-D
 -11900.9554 2  17.4308152
  1771.78434 2  6.78674711
  6798.65983 2  13.1928791
 -661.347051 2  6.03484502
  5324.30064 2  21.473549
 -1131.64204 2  54.6219981
 -2628.40227 2  8.6501916
 -5330.83041 2  34.1746927
  4587.11743 2  24.7233606
  3209.86996 2  46.291548
O-LES GEN 2 1
7       P
 -33.7880782 2   15.2168459
 -3.3940401 2   128.509992
 -7.80348522 2   38.1725349
 -1.77249588 2   540.590474
  3.92316748 2   8.69742515
 -0.939126666 2   3211.15414
  6. 1   15.
3       S-P
  29.1102439 2   10.0448527
  47.7288457 2   10.237855
 -21.4103895 2   8.77094221
 $END
 $VEC
 1  1 6.58679288E-01-1.63276262E-02 3.04404322E-01 9.17455420E-02 4.45627349E-03
 1  2 8.48615212E-03 7.49098860E-08 6.11226803E-08 6.26591066E-04-1.37933958E-09
 1  3 5.30519651E-09 1.07566000E-03 1.49441415E-08 1.12481846E-08-3.18847678E-04
 1  4 2.67896155E-09-3.02383112E-10-1.12159099E-03-6.44416451E-09-1.11576037E-08
 1  5-4.66325209E-03-1.57812731E-09-5.59796805E-09-5.75275737E-06-6.48737141E-03
 1  6-6.48575341E-03 1.24444418E-02-1.07288780E-03 1.09748569E-07 9.62200674E-08
 1  7-1.39208835E-02-1.39209489E-02-2.04576915E-02 4.18771693E-05 5.81830587E-08
 1  8 1.21996557E-07-3.49448762E-03-3.49433221E-03-3.91301362E-03-1.03038380E-04
 1  9-1.42561663E-09-7.49926659E-09 7.42215018E-10 1.54409848E-10-1.31164011E-03
 1 10-2.78789955E-09-4.11928895E-05-3.15168240E-09-4.13089405E-05-4.39578402E-09
 1 11-4.35264061E-09 7.68426828E-05 5.83739582E-03-3.81004630E-04 5.73966118E-03
 1 12-1.98183481E-08-6.82827309E-09-5.47332913E-03-9.68289706E-09-1.87657516E-08
 1 13-6.92908868E-04 2.26049822E-09 9.07547531E-09-1.43317944E-03-1.82399339E-04
 1 14-1.82292297E-04 1.13953793E-03-7.09014324E-05-1.64831333E-10 8.50513312E-10
 2  1-1.84731112E-07 2.22719502E-07-5.27464378E-07 3.56335339E-08-2.99081502E-06
 2  2 1.68652457E-06-5.46021996E-01 5.46493831E-01 9.52407513E-05 1.52350370E-02
 2  3-1.52482012E-02-2.72318016E-06-1.92167949E-01 1.92334003E-01 3.22945664E-05
 2  4-5.45506715E-02 5.45978057E-02 1.00426286E-05 1.30314367E-02-1.30426965E-02
 2  5-3.98683204E-06-4.14049345E-03 4.14407186E-03 4.79787327E-07 2.37986705E-07
 2  6 4.34243361E-07-6.33217627E-07 4.14279130E-08 5.11896265E-04-5.12345688E-04
 2  7-9.65312392E-08-1.06787471E-07 9.21235262E-07 3.15086984E-08 2.15802167E-03
 2  8-2.15988945E-03-5.32820868E-07-5.22829462E-07-1.42323797E-06-9.34134610E-09
 2  9 3.78451742E-04-3.78778468E-04 9.12354250E-03-9.14090414E-03-1.03592041E-06
 2 10-8.99092619E-03-8.01480973E-07 8.99586680E-03-6.00042794E-07-1.19221723E-03
 2 11 1.19325081E-03 1.82519171E-08 5.71446579E-06-2.12509789E-06 3.06478043E-06
 2 12-5.00557587E-03 5.00992994E-03-4.73868200E-06 6.56267102E-05-6.56811562E-05
 2 13 1.09352861E-06-6.30256436E-04 6.30800543E-04-9.28476836E-07-1.01678390E-07
 2 14-9.85935164E-08 8.33895246E-07-2.93179071E-08 7.79037024E-04-7.79711717E-04
 3  1-1.58998564E-03 1.79725324E-03-4.37810395E-03 3.86300261E-04-2.42774049E-02
 3  2 1.36118422E-02 2.44407771E-04 1.09419803E-04 7.71813564E-01-6.85578877E-06
 3  3-3.08999573E-06-2.20743393E-02 8.62442018E-05 3.87684464E-05 2.61576315E-01
 3  4 2.45446045E-05 1.10864931E-05 8.11662370E-02-5.90540687E-06-2.68107723E-06
 3  5-3.23945487E-02 1.82826011E-06 8.03848679E-07 3.86234912E-03 2.69609925E-03
 3  6 2.69560646E-03-5.07577248E-03 3.26920134E-04 8.03033828E-08 2.04779322E-07
 3  7-8.41312584E-04-8.41657141E-04 7.40385416E-03 2.28944328E-04-7.77386707E-07
 3  8-2.45015851E-07-4.24527716E-03-4.24514945E-03-1.15858599E-02-8.45702096E-05
 3  9-1.76556744E-07-8.13840926E-08-3.93497344E-06-1.59535282E-06-8.36940731E-03
 3 10-1.86818911E-06-5.60606082E-03-4.04480089E-06-5.60540009E-03 2.71796645E-07
 3 11-1.22322784E-07-4.37259864E-04 4.66160134E-02-1.70936287E-02 2.49601283E-02
 3 12 1.05011714E-06-1.99266877E-07-3.86946457E-02-1.37898279E-07-1.33157709E-07
 3 13 8.75227608E-03 3.06727560E-07 1.54365552E-07-7.49871977E-03-8.20691179E-04
 3 14-8.20310081E-04 6.79778363E-03-2.52421283E-04-2.85927352E-07-8.78149842E-08
 4  1 4.93011884E-07-5.57377295E-07 1.42414090E-06-2.10881774E-07 7.93084183E-06
 4  2-4.39995119E-06 5.46255784E-01 5.45784203E-01-2.50116095E-04-1.53490605E-02
 4  3-1.53358088E-02 7.15678585E-06 1.92890294E-01 1.92723767E-01-8.47529655E-05
 4  4 5.49091363E-02 5.48617286E-02-2.62072519E-05-1.32508843E-02-1.32394438E-02
 4  5 1.05870380E-05 4.07333880E-03 4.06982276E-03-1.23082603E-06-8.33764402E-07
 4  6-8.53201294E-07 1.58855251E-06-1.42825300E-07 4.83266316E-04 4.82842006E-04
 4  7 2.58094521E-07 2.60607262E-07-2.30421054E-06-7.23243344E-08-1.68809331E-03
 4  8-1.68663898E-03 1.35981777E-06 1.36076658E-06 3.79396820E-06 3.19793494E-08
 4  9-4.18629527E-04-4.18267767E-04-8.96387966E-03-8.94652139E-03 2.61979545E-06
 4 10-8.99477992E-03 1.84141829E-06-8.98963284E-03 1.88063346E-06 7.63852534E-04
 4 11 7.63196559E-04 3.79570682E-09-1.53305749E-05 5.44674262E-06-8.23747286E-06
 4 12 1.34134404E-03 1.34021511E-03 1.27207041E-05-3.37200892E-04-3.36907487E-04
 4 13-2.73889101E-06 6.96838344E-04 6.96236229E-04 2.43415733E-06 2.68277255E-07
 4 14 2.71729179E-07-2.23213405E-06 8.21466575E-08-5.98428036E-04-5.97912932E-04
 5  1-4.45523896E-02-7.09307123E-03-5.02108213E-02 4.37818031E-02-1.90942116E-02
 5  2-1.80439710E-04 1.46893261E-07 2.03449134E-07-1.04283873E-01-4.79562521E-09
 5  3-1.15046850E-09-5.33514745E-03 5.54202562E-08 7.30103653E-08-3.32740248E-02
 5  4 9.03334999E-10-1.80740865E-08 2.87158691E-02-1.43672499E-08-1.04074632E-08
 5  5-2.44380033E-02 2.01981686E-10-5.02762063E-09-1.24933178E-02-2.94001510E-02
 5  6-2.93983267E-02 5.66735327E-02-1.16243765E-03-2.81729473E-08-4.45764384E-08
 5  7-1.49500388E-02-1.49484000E-02 3.07365976E-02-1.07202507E-03-6.22594163E-09
 5  8-3.96967476E-08 2.08465412E-03 2.08638765E-03-2.28692889E-02-1.14549085E-03
 5  9-5.10736359E-09-1.98960568E-09-1.55818938E-08-1.98236179E-08 6.17207137E-03
 5 10 1.65144990E-09-2.17039850E-03 1.03427047E-09-2.17034787E-03 1.61556248E-08
 5 11 2.41296339E-08-3.35999730E-05 9.30657970E-01-4.78016430E-03 7.35481462E-02
 5 12-3.08715341E-08-7.57527627E-08-9.53181557E-02-7.53615847E-09-2.90592128E-08
 5 13-5.86362799E-03 7.22592576E-09 2.07790669E-08 6.44575199E-04 1.17096576E-03
 5 14 1.17334388E-03 1.90603526E-02-1.57496734E-03 3.83470500E-09 1.91636459E-08
 6  1 7.33724172E-02 1.65053854E-02 9.01876527E-02-6.88644372E-02-9.66895073E-02
 6  2 4.71628403E-02-8.88199494E-08-1.36033816E-07 1.06689581E-01 1.52701318E-09
 6  3-7.11561095E-10 1.15502279E-02-3.70850997E-08-4.94335386E-08 3.34708809E-02
 6  4 4.24486331E-09 5.48985835E-08-5.76559300E-02 3.26600121E-08 4.23726384E-08
 6  5-1.31873736E-02 5.21496419E-09 5.28575381E-09 8.75962971E-03 8.65092824E-02
 6  6 8.65104003E-02-1.68796257E-01-9.49697374E-04-3.50755548E-08 5.31264329E-08
 6  7 3.54775701E-02 3.54800830E-02-9.48668796E-02-1.72951749E-03-9.07758591E-08
 6  8 6.56077730E-09-2.04322840E-02-2.04314937E-02-6.90223040E-03-5.37298512E-04
 6  9-3.96423830E-08-3.63402734E-08 1.17319064E-08 1.40295413E-08-8.79008580E-03
 6 10-1.82198468E-09 3.33570000E-03-7.52265887E-10 3.33580443E-03-1.48124199E-08
 6 11-2.08129153E-08-6.90947561E-05 1.71007156E-01 2.37428397E-02 6.65636970E-02
 6 12 3.06875323E-07 1.80839353E-07 8.74842638E-01 1.50998801E-09 7.68904399E-09
 6 13 2.13563053E-02 2.22571839E-08-1.04502549E-08-7.67903996E-03 7.72645760E-03
 6 14 7.72620177E-03-2.97613086E-02 1.68632590E-04 5.14946820E-09-1.77499021E-08
 7  1-4.95370055E-09 2.47078102E-09-9.70031934E-10 3.37325808E-09 5.34633998E-09
 7  2-1.53505462E-08 3.38461563E-02-3.38756689E-02 1.13743348E-08 2.91136917E-03
 7  3-2.91390776E-03 1.63141652E-09 1.98879776E-02-1.99053195E-02 1.94648973E-08
 7  4-2.37698317E-02 2.37905584E-02-3.55472052E-08-2.50629824E-02 2.50848368E-02
 7  5-9.51287507E-09-9.12743792E-03 9.13539657E-03 1.26644461E-10-1.33732170E-05
 7  6 1.34082374E-05-3.52907280E-08 7.86989893E-08-6.38020290E-02 6.38576631E-02
 7  7-3.83524919E-06 3.83813920E-06-3.50275334E-08 3.26222687E-08-3.95700782E-02
 7  8 3.96045828E-02-6.92732256E-07 7.05421920E-07 4.51398393E-09 1.17126462E-08
 7  9-7.90512864E-03 7.91202191E-03-4.65306481E-04 4.65696345E-04-3.49650296E-09
 7 10 2.00369789E-04 1.58872354E-08-2.00173987E-04-1.66001448E-08-4.05841826E-03
 7 11 4.06195714E-03-8.79256274E-10 1.03517591E-07 2.97505143E-08-5.03859136E-08
 7 12-6.25048669E-01 6.25593690E-01-7.12957726E-09-4.91566548E-02 4.91995181E-02
 7 13 1.03552415E-08-1.76122797E-02 1.76276369E-02 1.70443573E-08-1.94791963E-08
 7 14 1.26488103E-08 2.40205259E-09 1.24722105E-08 1.49329599E-02-1.49459810E-02
 8  1-5.01999761E-08-1.65592367E-08-6.56825077E-08 4.27226207E-08 1.81168541E-07
 8  2 8.56704764E-09 1.01428716E-06-1.04907080E-06-4.06763761E-08 1.32450816E-07
 8  3-1.55612614E-07-4.63253893E-09 5.55925503E-07-5.34408944E-07-1.68377755E-08
 8  4-9.49541141E-07 1.02607819E-06 3.34195380E-08-1.04141345E-06 1.13498895E-06
 8  5 3.03208154E-08-2.46756006E-07 1.54419400E-07-9.86600821E-09 7.41380414E-01
 8  6-7.41380229E-01-1.89268536E-07-7.38768790E-04 6.52763876E-06-1.71401045E-05
 8  7 2.23408181E-01-2.23408120E-01-3.22403083E-08-2.22620284E-04 1.24372955E-06
 8  8-4.29246747E-06 4.74312283E-02-4.74311930E-02-2.72964801E-09-4.72636022E-05
 8  9 2.55778155E-07-9.37421885E-07-3.70295007E-08 4.40086814E-08 3.30317550E-09
 8 10 3.64748077E-09-6.67701364E-04-5.51805053E-09 6.67701356E-04-1.20574758E-07
 8 11 1.26348779E-07 6.65372788E-07 2.60232552E-08-1.00773346E-08-4.72335217E-08
 8 12-1.47857985E-05 1.26831501E-05-2.06076837E-07-1.38940491E-06 1.35444050E-06
 8 13-4.15458728E-09-8.04632798E-07 1.14724530E-06 1.00642705E-08 2.43760958E-03
 8 14-2.43761151E-03 4.98147072E-09-2.42933328E-06 2.78089829E-07-1.06776835E-07
 9  1-3.00166315E-07-7.89702838E-08-2.89456003E-07 3.24852523E-07 5.73885954E-07
 9  2-2.13208272E-07-1.80974995E-02-1.80817342E-02-3.29749240E-07-1.16661116E-03
 9  3-1.16559521E-03-6.19098705E-08-1.12058677E-02-1.11961051E-02-6.93777452E-08
 9  4 8.71422918E-03 8.70663956E-03 2.91388039E-07 9.69561436E-03 9.68717049E-03
 9  5 1.92212851E-07 8.61017334E-03 8.60266688E-03-8.16969579E-08 6.71018877E-06
 9  6-3.07653942E-06-3.68695075E-06-1.59554604E-06 3.18532890E-01 3.18255394E-01
 9  7 1.67756327E-06-1.03615238E-06-5.92999293E-07-3.72687144E-07 8.54965033E-02
 9  8 8.54220237E-02 4.15852334E-07-9.53805730E-08-7.45753711E-08-6.52381220E-08
 9  9 1.53013769E-02 1.52880454E-02 2.49225399E-05 2.49733663E-05 4.61303154E-08
 9 10-2.68250610E-05-1.90437641E-08-2.67512137E-05-9.96050837E-09 2.22897221E-03
 9 11 2.22703032E-03-4.43463761E-09 3.24141145E-07 1.96349338E-07-2.05604055E-07
 9 12 5.53855200E-01 5.53372674E-01-1.15696408E-06 1.85977138E-02 1.85815104E-02
 9 13-2.01919136E-07-1.47649449E-02-1.47520809E-02 1.24839873E-07 1.72037779E-08
 9 14-3.71418556E-08 4.77843061E-08-1.58579447E-08-1.49163826E-02-1.49033875E-02
10  1-5.65304980E-07-1.58849462E-07-6.95449902E-07 4.59296123E-08 2.22629127E-06
10  2 1.23096231E-06-2.14099202E-02 2.14285889E-02 1.75559517E-07-4.31736209E-03
10  3 4.32112654E-03 2.27570451E-08-8.73107737E-03 8.73869150E-03 1.19363238E-07
10  4 2.65976113E-02-2.66208038E-02-2.11679811E-07 2.52207843E-02-2.52427772E-02
10  5-5.80632077E-07-1.57937629E-05 1.58068823E-05-3.49638158E-07 1.67123229E-05
10  6-1.52890280E-05-1.48870969E-06 5.80326146E-06-6.30333842E-01 6.30883499E-01
10  7 4.54436854E-06-3.92685774E-06-4.46587516E-07 1.46968193E-06-1.42710885E-01
10  8 1.42835335E-01 7.97300584E-07-6.08973631E-07-9.52458307E-08 2.17931296E-07
10  9-2.53530227E-02 2.53751296E-02 9.93046614E-04-9.93840843E-04-4.35739490E-09
10 10-4.07080766E-04-8.06422699E-09 4.06630390E-04-1.71059824E-08 2.44931865E-03
10 11-2.45145477E-03-2.24937903E-09-1.78052359E-07-5.73907954E-09-1.08425819E-08
10 12 1.19759950E-01-1.19864415E-01-8.78731154E-09 2.09133601E-02-2.09315989E-02
10 13-7.11246045E-08 2.34575501E-02-2.34780037E-02 3.98843798E-08 5.84942928E-08
10 14-3.33716152E-08-6.25345213E-09 1.49346365E-08 2.92125432E-03-2.92380097E-03
11  1-1.46917375E-01-4.11684981E-02-1.87103332E-01-2.09068230E-03 6.00611678E-01
11  2 3.68997781E-01 2.69075721E-07-1.07508117E-09 7.37140105E-02 4.12407484E-08
11  3-1.34158560E-08 1.05408074E-02 9.32835830E-08-1.54018133E-08 4.27178546E-02
11  4-2.08619664E-07 1.41205322E-07-7.48359904E-02 6.45361669E-08 5.64031829E-07
11  5-2.08145427E-01 2.33881439E-07 1.18708200E-07-1.00067436E-01 1.11545417E-01
11  6 1.11435972E-01-2.34615822E-01 7.34474669E-02 8.87972060E-06 3.70695636E-06
11  7 6.01832716E-02 6.01550690E-02-7.42712573E-02 1.89395534E-02 1.37178751E-06
11  8-1.15835843E-07 2.04468585E-02 2.04389048E-02-1.75509052E-02 5.30915514E-03
11  9-1.96411940E-07-6.51826496E-07-1.13981385E-08 5.97521860E-09-3.78676050E-03
11 10 3.61115083E-09-3.17036480E-03 1.46769682E-09-3.17057952E-03-3.17794512E-08
11 11-1.26649181E-08 1.42007844E-04-6.32994517E-02-1.06412081E-02 6.07615399E-03
11 12-5.71963090E-06-4.70861510E-06 6.97395238E-02-3.51707806E-07-1.30308037E-07
11 13-6.14040836E-03-5.16059688E-08 2.48420317E-07 8.56510821E-03 2.68223622E-03
11 14 2.68291950E-03-3.32600154E-03-4.49815171E-04 3.33377371E-08 4.53330462E-08
12  1 1.00582440E-06 3.00806086E-07 1.48041592E-06 2.79508239E-07-5.09076579E-06
12  2-4.14681647E-06 2.66368204E-02 2.66136166E-02-1.19247991E-06 4.51605698E-03
12  3 4.51212315E-03-1.90883631E-07 1.23117295E-02 1.23010102E-02-5.63750011E-07
12  4-2.67372056E-02-2.67139211E-02 1.01366034E-06-2.74287840E-02-2.74048829E-02
12  5 2.53940120E-06-2.88614690E-03-2.88371032E-03 9.25890876E-07 6.65133944E-06
12  6-2.69406379E-06-3.92892395E-06-4.14629576E-05 5.47268441E-01 5.46791606E-01
12  7 1.30553885E-06-1.07599289E-06-6.54449000E-07-1.10948387E-05 1.22332034E-01
12  8 1.22225452E-01 2.42136829E-07-1.23782212E-07-3.20775320E-08-1.90047471E-06
12  9 2.16040837E-02 2.15852692E-02-8.07951844E-04-8.07463767E-04 1.00042964E-07
12 10-2.49886729E-04 1.75294996E-08-2.50392574E-04 2.04121526E-08-3.40628331E-03
12 11-3.40331602E-03 1.95146143E-08 9.15068409E-07 4.55682289E-07 5.73466823E-08
12 12-3.84844004E-01-3.84508708E-01-2.18225271E-06-2.70956842E-02-2.70720788E-02
12 13-3.52795315E-07-1.29018657E-02-1.28906097E-02-4.30771594E-08-1.22456734E-09
12 14-1.50022663E-08 2.15732252E-08-1.02401945E-07 2.81176916E-03 2.80931998E-03
13  1 1.27462455E-02 2.88095809E-03 1.60706798E-02 5.15766322E-03-5.24337493E-02
13  2-4.32639199E-02 1.38141357E-06 1.25987882E-06-1.30682559E-02 2.39845220E-07
13  3 2.21110058E-07-2.05240895E-03 5.71223431E-07 7.02669993E-07-7.11867982E-03
13  4-1.37953381E-06-1.42177608E-06 1.40421523E-02-1.61556440E-06-1.03186888E-06
13  5 3.01340485E-02 5.11591658E-07-2.23926793E-06 1.07071977E-02 1.41907577E-02
13  6 1.28924375E-02-2.62261111E-02 8.68601483E-01 2.97139422E-05 2.15441228E-05
13  7 5.15825729E-04 1.63927618E-04-2.93345086E-03 2.35424048E-01 6.84744312E-06
13  8 4.98320967E-06-5.42435539E-04-6.02541327E-04 7.14350074E-04 4.02133816E-02
13  9 1.20839165E-06 1.13398714E-06-3.09689536E-08-6.28173415E-08 1.00957568E-03
13 10-3.68914454E-08 4.58972751E-04-2.52752906E-08 4.60070883E-04-1.66839354E-07
13 11-1.46517570E-07-7.34561809E-04 1.09696294E-02 1.78739830E-03-3.13786290E-03
13 12-1.75892098E-05-1.58027701E-05-1.67641392E-02-1.35119341E-06-1.13004726E-06
13 13-1.19805704E-03-9.59351653E-07-1.66431955E-07-4.46466600E-04-2.29179001E-05
13 14-2.72367688E-05-1.17346929E-04 2.88767502E-03 7.96467010E-08 1.26777099E-07
14  1-9.63211358E-07-5.88951014E-07-2.80225065E-08 2.34627340E-06 2.55852566E-05
14  2-5.86077160E-05-7.62781819E-02-7.62117971E-02-1.97432137E-06-1.37384909E-02
14  3-1.37265350E-02-2.81757093E-07-6.55230760E-02-6.54660476E-02-1.55893775E-06
14  4 9.92360182E-02 9.91496568E-02 1.20259812E-06 1.31408763E-01 1.31294418E-01
14  5 1.39818492E-06 6.00859034E-01 6.00336059E-01 1.44766597E-05 6.45803629E-06
14  6 6.13052653E-06-1.27204486E-05-1.52812581E-07 7.07611230E-02 7.06995452E-02
14  7 4.16926955E-06 4.32829880E-06-4.53809388E-06 4.92377679E-08-7.02155705E-03
14  8-7.01544631E-03 1.65936342E-05 1.69898070E-05 7.13475458E-06 6.22482116E-08
14  9-7.82664782E-02-7.81983666E-02 1.15016743E-02 1.14919798E-02 2.30984542E-07
14 10 4.97573873E-03 7.91783479E-08 4.98049716E-03 9.25325708E-08 2.22230624E-03
14 11 2.22037179E-03-8.65594608E-10-3.50314016E-07 1.41258915E-06-2.75451268E-07
14 12-1.24019756E-01-1.23911814E-01-3.31670651E-06 3.86844962E-03 3.86506907E-03
14 13-1.41970704E-06-7.74405701E-02-7.73731919E-02-1.03532697E-06 1.03481637E-07
14 14 1.07236378E-07-1.69979707E-07 4.02944848E-08-2.06677427E-03-2.06497461E-03
15  1 4.20769283E-02 2.24466049E-02 1.74468199E-02-7.74262214E-02-7.01305564E-01
15  2 1.52538490E+00-1.62732816E-06-2.29594674E-06 7.86104402E-02-2.97621025E-07
15  3-4.36326047E-07 1.28549414E-02-1.39206815E-06-1.96043239E-06 6.55882308E-02
15  4 2.16551702E-06 3.09574406E-06-6.86934573E-02 2.98000484E-06 4.21849213E-06
15  5-7.57806003E-02 1.30552245E-05 1.82165942E-05-5.79947985E-01-2.27517899E-01
15  6-2.27575257E-01 4.60151102E-01 3.81774829E-02 5.62148016E-06 6.78629657E-06
15  7-1.52183597E-01-1.52201505E-01 1.83134389E-01 1.19211120E-02 1.52642197E-06
15  8 1.61793285E-06-4.95596613E-01-4.95597982E-01-9.61466076E-02 9.47569649E-04
15  9-5.06543280E-07-1.49061407E-06 2.61992123E-07 3.63680045E-07-9.64743092E-03
15 10 1.67183804E-07-4.19890153E-03 1.16210291E-07-4.19870434E-03 2.28120793E-08
15 11 3.38754721E-08-1.31176644E-04 3.53767601E-02-3.19182425E-02 2.55380525E-02
15 12-4.18697693E-06-5.36484704E-06 1.05674779E-01-8.99346657E-09-1.00307958E-07
15 13 3.72105945E-02-2.09061425E-06-2.83303610E-06 6.20928196E-02-4.73272267E-03
15 14-4.73139066E-03 7.34980172E-03-8.81263634E-04-1.06790640E-07-1.20215934E-07
16  1-1.78734174E-07-1.13932243E-07 2.53876217E-08 4.77976997E-07 5.29954481E-06
16  2-1.24278117E-05 7.05562754E-02-7.06177375E-02-3.13875531E-07 1.30026761E-02
16  3-1.30140035E-02-3.71717278E-08 6.42739536E-02-6.43299412E-02-2.62802027E-07
16  4-9.87085780E-02 9.87945690E-02 1.54598596E-07-1.04107782E-01 1.04198490E-01
16  5-7.51378249E-08-6.29732082E-01 6.30280634E-01 2.72922656E-06 1.01941114E-06
16  6 1.00208152E-06-2.04831472E-06 1.22484543E-06-8.27657244E-02 8.28378866E-02
16  7 3.76708676E-07 1.20697875E-06-7.46492651E-07 3.96283484E-07 9.39713535E-03
16  8-9.40530572E-03 2.94750874E-06 4.11772374E-06 1.68612382E-06 1.62186542E-07
16  9 9.78570387E-02-9.79422865E-02-1.13455000E-02 1.13552255E-02 3.51335828E-08
16 10 4.99624930E-03 1.34635984E-08-4.99168934E-03 1.97218707E-08-2.09753318E-03
16 11 2.09935970E-03-5.45197391E-09-8.49441991E-08 3.19647068E-07 1.31617404E-07
16 12 1.16579499E-01-1.16681088E-01-5.29191938E-07 4.45851607E-03-4.46241653E-03
16 13-3.15035186E-07 1.02107622E-01-1.02196597E-01-1.70505907E-07 7.87571178E-09
16 14 2.43835858E-08-2.25184203E-08 9.37539852E-09 1.14218110E-03-1.14317505E-03
17  1 6.16319065E-02 4.24926726E-02-1.11062785E-01-1.06547876E-01-4.65037976E+00
17  2 9.34757114E+00-1.01149199E-07-7.29207275E-08-4.37453576E-02 1.02014734E-08
17  3-3.28158146E-08-1.04389202E-02-1.14885910E-07-2.19939159E-07-5.85063462E-02
17  4 8.96396430E-08 1.76413854E-07 1.22809265E-01-4.49226097E-08-3.78708643E-07
17  5-1.78363726E-01 1.82528856E-06 3.27691158E-06 1.38502972E-01-2.47494879E-02
17  6-2.47464241E-02 5.44617393E-02-2.03245181E-03 5.63016659E-08 6.35723686E-08
17  7-2.01333343E-01-2.01331676E-01-1.88618526E-01-1.10121274E-03 2.28763808E-07
17  8 3.57810420E-07-2.34065619E+00-2.34067854E+00-2.66848809E+00 1.48372485E-02
17  9 1.39882430E-07 8.94315371E-08 2.21905271E-08 4.37652679E-08 8.07099578E-03
17 10 1.99412680E-08 5.29443394E-03 1.04394539E-08 5.29456591E-03-6.02916554E-09
17 11 4.21198900E-09-8.75723243E-05-4.77882173E-02-8.55523552E-02 5.44458039E-01
17 12-2.85710042E-07-4.10295778E-07-4.17537791E-02-2.48922208E-08-1.52658002E-08
17 13 2.72700575E-02-3.61293498E-07-6.63046926E-07-3.66597557E-01 1.40588346E-03
17 14 1.40714769E-03 1.10981949E-04-8.37141869E-04 1.24929372E-09 5.83164898E-09
18  1-2.80891817E-02-5.72337659E-03-2.72029270E-02-5.63542451E-02 2.17041490E+00
18  2-1.89677736E+00 2.57917148E-08-7.36801256E-08 7.23026940E-02-2.73292934E-08
18  3-2.14945879E-08 4.11469321E-03-1.06997199E-07-6.24187808E-08-2.62461481E-02
18  4 3.44913061E-07 2.95424792E-07 1.08924035E-01-5.88272894E-07 1.21447937E-07
18  5-1.20899748E-01 1.87936177E-06 9.40341358E-07 1.71039692E+00-1.82824361E-01
18  6-1.82842853E-01 3.64332595E-01 1.23190133E-02 2.33386911E-06 2.65639536E-06
18  7-7.53388030E-02-7.53491971E-02 2.12388756E-01 6.94253752E-03 1.16609387E-06
18  8 1.16408529E-06 5.26055619E-01 5.25995159E-01 1.40643174E+00 4.02353133E-02
18  9 1.79589537E-06 1.52950772E-06 3.49428731E-08 2.27099663E-08 5.78997467E-03
18 10 1.62670912E-08 4.97577130E-03 1.82796263E-08 4.97573856E-03-5.16244092E-09
18 11-1.53546341E-08 2.15011550E-05-1.92942731E-01 1.68272384E-01-2.08021644E+00
18 12-1.02526030E-06-1.00115291E-06 8.27314645E-02-7.55260569E-08-6.44011615E-08
18 13 9.95506164E-02-1.22700176E-06-1.10515898E-06 3.63565760E-01-8.35103425E-04
18 14-8.29387524E-04-2.25943368E-03-3.78407425E-03-4.56505858E-08-5.54415940E-08
19  1-1.34707488E-07-1.99059319E-07 1.34714215E-06 1.37094955E-06 3.09876573E-06
19  2-2.94919942E-05 1.09086238E-01 1.08991462E-01-1.37137452E-07 3.52762947E-03
19  3 3.52456572E-03-6.31648188E-08-5.64077530E-02-5.63587450E-02-1.71749138E-07
19  4 1.89086403E-01 1.88922110E-01 7.71596581E-07-1.04267131E+00-1.04176541E+00
19  5-1.89207504E-06 1.08106050E+00 1.08012127E+00-4.55775073E-06-1.29348703E-06
19  6-1.52650138E-07 1.45215141E-06 1.08934735E-06-7.59842567E-02-7.59182364E-02
19  7 1.33822002E-06 1.63278090E-06 1.64234846E-06 3.89567615E-07-1.57607720E-02
19  8-1.57470681E-02 1.38678433E-05 7.91964303E-06 2.95124045E-06-5.62530445E-06
19  9 5.17397303E-01 5.16947693E-01 1.40906265E-02 1.40779867E-02 2.00058119E-08
19 10 6.50184563E-03 3.03057188E-08 6.50696602E-03 2.32233633E-08 7.39742734E-03
19 11 7.39100053E-03 8.36067994E-09-1.20102988E-07-1.25294397E-06 1.04331908E-05
19 12-5.80369165E-03-5.79864298E-03 1.23010022E-06 1.85530512E-02 1.85369541E-02
19 13 1.67403905E-07-2.78136987E-01-2.77895376E-01-2.35583838E-06 3.56474675E-08
19 14-7.60342278E-09-1.83840249E-08-5.02556889E-08 6.06350781E-03 6.05823684E-03
20  1-2.46365628E-08-3.61229495E-08 2.49425833E-07-1.48125403E-08 5.27345192E-06
20  2-8.99631730E-06-1.08727589E-01 1.08822152E-01-5.32307987E-08-3.11704893E-03
20  3 3.11976106E-03-5.73960780E-09 5.87295499E-02-5.87806281E-02 4.81089708E-08
20  4-1.94453342E-01 1.94622450E-01-2.95793294E-08 1.04047768E+00-1.04138259E+00
20  5 1.73284003E-06-1.09641670E+00 1.09737029E+00-1.28549964E-07-2.00167249E-06
20  6 1.77105316E-06 2.33305552E-07-6.02871796E-07 7.97200792E-02-7.97893987E-02
20  7-4.39732504E-07 8.09278621E-07 3.94383570E-07-1.92951340E-07 1.25510258E-02
20  8-1.25619282E-02 1.28667909E-05-7.52326061E-06 3.70129558E-06 4.58520654E-06
20  9-5.28878291E-01 5.29338152E-01-1.46366031E-02 1.46495898E-02-9.59515610E-09
20 10 6.68488122E-03-4.42354410E-09-6.67941730E-03 2.85688939E-10-7.65529663E-03
20 11 7.66195487E-03 2.00853483E-09-1.63016622E-07-1.39481870E-07-2.37847087E-06
20 12 8.35023999E-03-8.35749033E-03 1.76502517E-07-2.21374881E-02 2.21567674E-02
20 13 1.80814786E-07 3.11863919E-01-3.12135201E-01 8.66060226E-07 8.54452977E-08
20 14-6.81369579E-08-1.09357167E-08 3.40147832E-08-5.00143836E-03 5.00578528E-03
21  1 2.04678317E-03-3.06758206E-03 3.79806571E-02 4.12090922E-02-2.06171171E-01
21  2-4.58806968E-01 1.09312914E-06 1.05820934E-07 7.87587970E-06 2.83215748E-08
21  3 3.67496229E-09-1.51848342E-06-6.33403852E-07-6.24133103E-08-2.22060461E-03
21  4 2.06616283E-06 1.93384140E-07 3.36559514E-03-1.07192281E-05-9.98560058E-07
21  5-1.22796164E-01 1.07400985E-05 5.74040425E-07-1.20750697E-01-1.39537304E-02
21  6-1.36807216E-02 2.79530124E-02-1.82637612E-01-6.55482800E-07 1.09258507E-07
21  7 3.39644632E-02 3.40677283E-02 3.95229908E-02-6.90790736E-02-1.61038177E-07
21  8 3.60604491E-08 1.84328261E-01 1.82808940E-01-2.74718132E-02 1.01637993E+00
21  9 4.33644500E-06-9.60044546E-08 1.50500894E-07 8.77655124E-09-1.15070917E-05
21 10 1.29520213E-08 4.13056050E-04 7.45625178E-08 4.13826859E-04 8.25415202E-08
21 11 7.79741633E-09-5.15675147E-04 7.24089164E-03-3.78535602E-02 4.07455861E-01
21 12 9.00187731E-08 8.54044504E-08 2.25989569E-02 3.00910366E-07 3.80771438E-08
21 13-5.16718724E-03-2.63640133E-06 6.85030470E-08-1.40073620E-01 9.20709526E-04
21 14 9.08570784E-04-1.09193690E-03 8.11893011E-03 5.38319480E-08 7.30406980E-09
22  1 1.88847538E-08-1.92956959E-08 2.60847362E-07 2.64490611E-07-9.98601703E-07
22  2-3.32524017E-06 9.44640136E-07-2.04156387E-06 3.30993394E-09 2.67363438E-08
22  3-8.10577539E-08 8.02019446E-10-5.37235433E-07 1.03055867E-06-4.91876421E-09
22  4 1.72790508E-06-3.50537845E-06-1.50452035E-09-8.96822067E-06 1.93651372E-05
22  5-6.63853271E-07 8.39605120E-06-1.70965694E-05-5.66088876E-07-1.61018838E-01
22  6 1.61018668E-01 1.73346839E-07 1.60480823E-04-7.44433003E-07 1.17934524E-06
22  7-9.54759872E-02 9.54764116E-02 2.80325072E-07 9.51524496E-05-4.38484244E-07
22  8 8.77593836E-07 8.96956185E-01-8.96953674E-01 2.66248482E-07-8.93931807E-04
22  9 4.07536467E-06-4.93398855E-06 1.32362322E-07-2.50389351E-07-1.66225308E-09
22 10-1.09042784E-07-3.80702601E-04 5.24039430E-08 3.80706973E-04 7.31183811E-08
22 11-1.48831648E-07 3.79334693E-07 2.75643729E-08-2.25837426E-07 2.14371802E-06
22 12 2.01537230E-07-1.01520566E-06 1.30304429E-07 2.21548566E-07-8.70324835E-07
22 13-2.28396005E-08-1.77828762E-06 3.25401075E-06-8.52939029E-07 6.60727979E-03
22 14-6.60726524E-03-8.75136874E-09-6.58397013E-06 4.27193286E-08-1.04781419E-07
23  1 4.48909735E-03-2.59105047E-02 2.81134815E-01 4.66456794E-01-3.45881637E+00
23  2-1.64173127E+00-1.62844582E-06-1.58583649E-06 6.39659053E-02-1.14959781E-07
23  3-1.19475038E-07-1.35764654E-03 5.74658983E-07 5.14373319E-07-1.03769363E-01
23  4-2.29234023E-06-2.09767772E-06 3.31753033E-01 1.54089203E-05 1.48868993E-05
23  5-2.38672905E+00-1.07346133E-05-1.00566070E-05-2.51593452E-01-1.73159651E-01
23  6-1.73206767E-01 3.48209834E-01 3.13423200E-02 1.40111281E-06 1.43550328E-06
23  7 2.51252306E-01 2.51229786E-01 4.41926128E-01 1.49765368E-02 8.50024850E-07
23  8 8.94159302E-07 1.04254309E+00 1.04268815E+00-1.25180505E+00-9.64274595E-02
23  9 6.59969740E-06 7.46934319E-06-1.20858579E-07-1.02607596E-07 2.01958375E-02
23 10-4.50185113E-08 1.01479308E-02-5.23121251E-08 1.01479962E-02-1.40058045E-07
23 11-1.37571216E-07-4.36795809E-05 6.78534205E-02-1.72985837E-01 4.06673289E+00
23 12-2.95943673E-06-3.08913796E-06 2.09066884E-01-2.07295688E-06-2.15532568E-06
23 13-1.61091591E-02 9.58199091E-07 6.52129082E-07-1.59868017E+00-3.81766594E-04
23 14-3.80547950E-04-7.81301410E-03-8.09537051E-04-9.52701422E-08-9.50831739E-08
24  1-2.24553960E-07 3.63790474E-07-4.66603970E-06-6.71991493E-06 4.55627918E-05
24  2 3.09239221E-05-8.14620196E-02-8.13910783E-02-9.39486046E-07-5.60152667E-03
24  3-5.59665053E-03 6.17420209E-08 2.50973867E-02 2.50755228E-02 1.51409436E-06
24  4-1.10392409E-01-1.10296245E-01-5.36725202E-06 7.62944584E-01 7.62280158E-01