 $CONTRL SCFTYP=RHF MULT=1 $END
 $DATA

DNH 4

H 1 0. 0. 0.7
S   3
  1     33.8700000              0.0060680        
  2      5.0950000              0.0453080        
  3      1.1590000              0.2028220        
S   1
  1      0.3258000              1.0000000        
S   1
  1      0.1027000              1.0000000        

 $END
