 $CONTRL SCFTYP=RHF MULT=1 ECP=READ $END
 $DATA

C1
O  8 0. 0. 0.
S 8 1.
1            64.2325670     -0.000146284806
2            44.2294580      0.000232571658
3            14.4012840      0.014522921481
4             6.2716241     -0.159288494635
5             2.8360343      0.017170056214
6             1.1159210      0.387280886160
7             0.4530391      0.534404313640
8             0.1800000      0.195875516232
S   1
  1        0.752000000          1.000000000
S   1
  1       0.2384000000          1.000000000
P 8 1.
1            23.5159210      0.006185522026
2            14.9592690     -0.001429661902
3            11.1499140      0.049362220387
4             4.5494628      0.119429052586
5             2.0155363      0.232565392345
6             0.8786699      0.354109222684
7             0.3557349      0.352406238388
8             0.1343186      0.144049619271
P   1
  1       0.7156000000          1.000000000
P   1
  1       0.2140000000          1.000000000
D 1 1.
1         0.98500000000 1.00000000

C  6 0. 0. 1.47
 S   5
   1       8.1380377          0.11795918E-01
   2       3.3151758         -0.15198125    
   3      0.66827631          0.27552348    
   4      0.29176766          0.54864514    
   5      0.11411349          0.30121511 
 S   1
  1       0.9059000000          1.000000000    
 S   1
  1       0.1285000000          1.000000000    
 P   5
   1       8.5281305          0.23512401E-01
   2       2.9014509          0.11648574    
   3      0.94312090          0.32777384    
   4      0.31558555          0.49260154    
   5      0.10393611          0.27312428     
 P   1
  1       0.3827000000          1.000000000    
 P   1
  1       0.1209000000          1.000000000    
 D   1
  1       0.5500000000          1.000000000 

$END
 $ECP
O-LN2 GEN 2 1
7       P
 -33.7880782 2   15.2168459
 -3.3940401 2   128.509992
 -7.80348522 2   38.1725349
 -1.77249588 2   540.590474
  3.92316748 2   8.69742515
 -0.939126666 2   3211.15414
  6. 1   15.
3       S-P
  29.1102439 2   10.0448527
  47.7288457 2   10.237855
 -21.4103895 2   8.77094221
C-LES GEN 2 1
7       P
 -16.7554933 2   7.71902471
 -0.318937855 2   2184.3154
 -2.90449512 2   20.7770051
 -1.24269724 2   76.3948299
 -0.601986071 2   351.761231
  0.218138855 2   3.95786259
  4. 1   5.992468
3     S-P
  27.006964 2   5.74118955
  8.57269969 2   5.12564415
 -6.3364597 2   4.68309865
 $END
