 $CONTRL  EXETYP=RUN RUNTYP=ENERGY $END
 $CONTRL ICHARG=0 MULT=1 SCFTYP=RHF PP=READ $END
 $CONTRL UNITS=ANGS $END
 $SCF DIRSCF=.TRUE. MVOQ=6 $END
 $DATA

DNH 4

  N     7.   0.000000   0.000000   0.85
  S   9
    1   0.0988690    0.0672660
    2   0.2114430    0.3342900
    3   0.4521970    0.4542570
    4   0.9670800    0.2678610
    5   2.0682210    0.0002480
    6   4.4231500    -0.1326060
    7   9.4594620    0.0144370
    8   20.2302460    0.0003590
    9   43.2649190    -0.0000940
  S   1
    1   1.2021830    1.0000000
  S   1
    1   0.1632430    1.0000000
  P   9
    1   0.0732340    0.0357580
    2   0.1458670    0.1539450
    3   0.2905350    0.2776560
    4   0.5786830    0.2976760
    5   1.1526120    0.2344030
    6   2.2957560    0.1403210
    7   4.5726520    0.0672190
    8   9.1077390    0.0315940
    9   18.1406570    0.0033010
  P   1
    1   0.1701040    1.0000000
  P   1
    1   0.5175470    1.0000000
  D   1
    1   0.4835670    1.0000000
  D   1
    1   1.7124160    1.0000000
  F   1
    1   1.0930970    1.0000000

 $END
 $ECP
 N-ECP GEN 2 1
 3      ----- N local -----
  5.0000000  1  9.2350101
  46.1750503  3  7.6683001
  -30.1889353  2  7.3448607
 1      ----- N nonlocal 0 -----
  31.6972041  2  6.9953654
 N-ECP
 $END
 
