 $CONTRL SCFTYP=NONE MULT=1 ICHARG=0  MAXIT=70 ECP=READ $END
 $SCF DIRSCF=.T.  $END
 $CONTRL CITYP=GUGA $END
 $CIDRT NPRT=2 NFZC=2 NDOC=3 NALP=0 NVAL=3 IEXCIT=2 $END
 $CIDRT GROUP=D4H $END
 $GUGDIA NSTATE=1 PRTTOL=0.0001 ITERMX=200 $END
 $GUESS GUESS=MOREAD NORB=40 $END
 $SYSTEM MEMORY=36600770 $END
 $DATA

DNH 4

  N     7.   0.000000   0.000000   0.85
  S   9
    1   0.0988690    0.0672660
    2   0.2114430    0.3342900
    3   0.4521970    0.4542570
    4   0.9670800    0.2678610
    5   2.0682210    0.0002480
    6   4.4231500    -0.1326060
    7   9.4594620    0.0144370
    8   20.2302460    0.0003590
    9   43.2649190    -0.0000940
  S   1
    1   1.2021830    1.0000000
  S   1
    1   0.1632430    1.0000000
  P   9
    1   0.0732340    0.0357580
    2   0.1458670    0.1539450
    3   0.2905350    0.2776560
    4   0.5786830    0.2976760
    5   1.1526120    0.2344030
    6   2.2957560    0.1403210
    7   4.5726520    0.0672190
    8   9.1077390    0.0315940
    9   18.1406570    0.0033010
  P   1
    1   0.1701040    1.0000000
  P   1
    1   0.5175470    1.0000000
  D   1
    1   0.4835670    1.0000000
  D   1
    1   1.7124160    1.0000000
  F   1
    1   1.0930970    1.0000000

 $END
 $ECP
 N-ECP GEN 2 1
 3      ----- N local -----
  5.0000000  1  9.2350101
  46.1750503  3  7.6683001
  -30.1889353  2  7.3448607
 1      ----- N nonlocal 0 -----
  31.6972041  2  6.9953654
 N-ECP
 $END
 $VEC   
 1  1 6.62770383E-01 3.98590030E-03-5.29455162E-02 0.00000000E+00 0.00000000E+00
 1  2 1.01285656E-01 0.00000000E+00 0.00000000E+00-1.43805620E-02 0.00000000E+00
 1  3 0.00000000E+00 8.59660247E-03-4.15225613E-03-4.15225613E-03 1.51867685E-02
 1  4 0.00000000E+00 0.00000000E+00 0.00000000E+00-8.78550848E-04-8.78550848E-04
 1  5 5.23801657E-03 0.00000000E+00 0.00000000E+00 0.00000000E+00 0.00000000E+00
 1  6 0.00000000E+00 1.83245142E-03 0.00000000E+00-2.16783085E-03 0.00000000E+00
 1  7-2.16783085E-03 0.00000000E+00 0.00000000E+00 0.00000000E+00 6.62770383E-01
 1  8 3.98590030E-03-5.29455162E-02 0.00000000E+00 0.00000000E+00-1.01285656E-01
 1  9 0.00000000E+00 0.00000000E+00 1.43805620E-02 0.00000000E+00 0.00000000E+00
 1 10-8.59660247E-03-4.15225613E-03-4.15225613E-03 1.51867685E-02 0.00000000E+00
 1 11 0.00000000E+00 0.00000000E+00-8.78550848E-04-8.78550848E-04 5.23801657E-03
 1 12 0.00000000E+00 0.00000000E+00 0.00000000E+00 0.00000000E+00 0.00000000E+00
 1 13-1.83245142E-03 0.00000000E+00 2.16783085E-03 0.00000000E+00 2.16783085E-03
 1 14 0.00000000E+00 0.00000000E+00 0.00000000E+00
 2  1 7.34777687E-01 1.22665977E-02-1.84492473E-02 0.00000000E+00 0.00000000E+00
 2  2-1.51500856E-01 0.00000000E+00 0.00000000E+00 1.45841045E-02 0.00000000E+00
 2  3 0.00000000E+00 2.03062846E-03 3.12870859E-03 3.12870859E-03-3.13674258E-03
 2  4 0.00000000E+00 0.00000000E+00 0.00000000E+00 1.29769588E-03 1.29769588E-03
 2  5-2.23449665E-03 0.00000000E+00 0.00000000E+00 0.00000000E+00 0.00000000E+00
 2  6 0.00000000E+00-1.29846952E-04 0.00000000E+00 2.52696312E-04 0.00000000E+00
 2  7 2.52696312E-04 0.00000000E+00 0.00000000E+00 0.00000000E+00-7.34777687E-01
 2  8-1.22665977E-02 1.84492473E-02 0.00000000E+00 0.00000000E+00-1.51500856E-01
 2  9 0.00000000E+00 0.00000000E+00 1.45841045E-02 0.00000000E+00 0.00000000E+00
 2 10 2.03062846E-03-3.12870859E-03-3.12870859E-03 3.13674258E-03 0.00000000E+00
 2 11 0.00000000E+00 0.00000000E+00-1.29769588E-03-1.29769588E-03 2.23449665E-03
 2 12 0.00000000E+00 0.00000000E+00 0.00000000E+00 0.00000000E+00 0.00000000E+00
 2 13-1.29846952E-04 0.00000000E+00 2.52696312E-04 0.00000000E+00 2.52696312E-04
 2 14 0.00000000E+00 0.00000000E+00 0.00000000E+00
 3  1-1.98945077E-01 2.00045216E-03-7.95751100E-02 0.00000000E+00 0.00000000E+00
 3  2 6.43788024E-01 0.00000000E+00 0.00000000E+00-9.92258085E-03 0.00000000E+00
 3  3 0.00000000E+00 4.29510777E-03 2.27495413E-03 2.27495413E-03 3.57334839E-02
 3  4 0.00000000E+00 0.00000000E+00 0.00000000E+00-7.69626930E-04-7.69626930E-04
 3  5 1.04973606E-02 0.00000000E+00 0.00000000E+00 0.00000000E+00 0.00000000E+00
 3  6 0.00000000E+00 1.58748345E-03 0.00000000E+00-2.45404875E-03 0.00000000E+00
 3  7-2.45404875E-03 0.00000000E+00 0.00000000E+00 0.00000000E+00-1.98945077E-01
 3  8 2.00045216E-03-7.95751100E-02 0.00000000E+00 0.00000000E+00-6.43788024E-01
 3  9 0.00000000E+00 0.00000000E+00 9.92258085E-03 0.00000000E+00 0.00000000E+00
 3 10-4.29510777E-03 2.27495413E-03 2.27495413E-03 3.57334839E-02 0.00000000E+00
 3 11 0.00000000E+00 0.00000000E+00-7.69626930E-04-7.69626930E-04 1.04973606E-02
 3 12 0.00000000E+00 0.00000000E+00 0.00000000E+00 0.00000000E+00 0.00000000E+00
 3 13-1.58748345E-03 0.00000000E+00 2.45404875E-03 0.00000000E+00 2.45404875E-03
 3 14 0.00000000E+00 0.00000000E+00 0.00000000E+00
 4  1 0.00000000E+00 0.00000000E+00 0.00000000E+00 6.16179666E-01 0.00000000E+00
 4  2 0.00000000E+00 5.99619296E-02 0.00000000E+00 0.00000000E+00-1.82567216E-02
 4  3 0.00000000E+00 0.00000000E+00 0.00000000E+00 0.00000000E+00 0.00000000E+00
 4  4 0.00000000E+00 2.84533891E-02 0.00000000E+00 0.00000000E+00 0.00000000E+00
 4  5 0.00000000E+00 0.00000000E+00 4.62174332E-03 0.00000000E+00 2.22110736E-03
 4  6 0.00000000E+00 0.00000000E+00 0.00000000E+00 0.00000000E+00 9.93309408E-04
 4  7 0.00000000E+00 5.99880014E-03 0.00000000E+00 0.00000000E+00 0.00000000E+00
 4  8 0.00000000E+00 0.00000000E+00 6.16179666E-01 0.00000000E+00 0.00000000E+00
 4  9 5.99619296E-02 0.00000000E+00 0.00000000E+00-1.82567216E-02 0.00000000E+00
 4 10 0.00000000E+00 0.00000000E+00 0.00000000E+00 0.00000000E+00 0.00000000E+00
 4 11-2.84533891E-02 0.00000000E+00 0.00000000E+00 0.00000000E+00 0.00000000E+00
 4 12 0.00000000E+00-4.62174332E-03 0.00000000E+00 2.22110736E-03 0.00000000E+00
 4 13 0.00000000E+00 0.00000000E+00 0.00000000E+00 9.93309408E-04 0.00000000E+00
 4 14 5.99880014E-03 0.00000000E+00 0.00000000E+00
 5  1 0.00000000E+00 0.00000000E+00 0.00000000E+00 0.00000000E+00 6.16179666E-01
 5  2 0.00000000E+00 0.00000000E+00 5.99619296E-02 0.00000000E+00 0.00000000E+00
 5  3-1.82567216E-02 0.00000000E+00 0.00000000E+00 0.00000000E+00 0.00000000E+00
 5  4 0.00000000E+00 0.00000000E+00 2.84533891E-02 0.00000000E+00 0.00000000E+00
 5  5 0.00000000E+00 0.00000000E+00 0.00000000E+00 4.62174332E-03 0.00000000E+00
 5  6 2.22110736E-03 0.00000000E+00 9.93309408E-04 0.00000000E+00 0.00000000E+00
 5  7 0.00000000E+00 0.00000000E+00 5.99880014E-03 0.00000000E+00 0.00000000E+00
 5  8 0.00000000E+00 0.00000000E+00 0.00000000E+00 6.16179666E-01 0.00000000E+00
 5  9 0.00000000E+00 5.99619296E-02 0.00000000E+00 0.00000000E+00-1.82567216E-02
 5 10 0.00000000E+00 0.00000000E+00 0.00000000E+00 0.00000000E+00 0.00000000E+00
 5 11 0.00000000E+00-2.84533891E-02 0.00000000E+00 0.00000000E+00 0.00000000E+00
 5 12 0.00000000E+00 0.00000000E+00-4.62174332E-03 0.00000000E+00 2.22110736E-03
 5 13 0.00000000E+00 9.93309408E-04 0.00000000E+00 0.00000000E+00 0.00000000E+00
 5 14 0.00000000E+00 5.99880014E-03 0.00000000E+00
 6  1 0.00000000E+00 0.00000000E+00 0.00000000E+00 0.00000000E+00 1.02963566E+00
 6  2 0.00000000E+00 0.00000000E+00-2.84768455E-01 0.00000000E+00 0.00000000E+00
 6  3-1.42422411E-01 0.00000000E+00 0.00000000E+00 0.00000000E+00 0.00000000E+00
 6  4 0.00000000E+00 0.00000000E+00 2.99303969E-02 0.00000000E+00 0.00000000E+00
 6  5 0.00000000E+00 0.00000000E+00 0.00000000E+00 1.19702338E-02 0.00000000E+00
 6  6 1.06454254E-02 0.00000000E+00 4.76077895E-03 0.00000000E+00 0.00000000E+00
 6  7 0.00000000E+00 0.00000000E+00 9.09763755E-03 0.00000000E+00 0.00000000E+00
 6  8 0.00000000E+00 0.00000000E+00 0.00000000E+00-1.02963566E+00 0.00000000E+00
 6  9 0.00000000E+00 2.84768455E-01 0.00000000E+00 0.00000000E+00 1.42422411E-01
 6 10 0.00000000E+00 0.00000000E+00 0.00000000E+00 0.00000000E+00 0.00000000E+00
 6 11 0.00000000E+00 2.99303969E-02 0.00000000E+00 0.00000000E+00 0.00000000E+00
 6 12 0.00000000E+00 0.00000000E+00 1.19702338E-02 0.00000000E+00-1.06454254E-02
 6 13 0.00000000E+00-4.76077895E-03 0.00000000E+00 0.00000000E+00 0.00000000E+00
 6 14 0.00000000E+00-9.09763755E-03 0.00000000E+00
 7  1 0.00000000E+00 0.00000000E+00 0.00000000E+00 1.02963566E+00 0.00000000E+00
 7  2 0.00000000E+00-2.84768455E-01 0.00000000E+00 0.00000000E+00-1.42422411E-01
 7  3 0.00000000E+00 0.00000000E+00 0.00000000E+00 0.00000000E+00 0.00000000E+00
 7  4 0.00000000E+00 2.99303969E-02 0.00000000E+00 0.00000000E+00 0.00000000E+00
 7  5 0.00000000E+00 0.00000000E+00 1.19702338E-02 0.00000000E+00 1.06454254E-02
 7  6 0.00000000E+00 0.00000000E+00 0.00000000E+00 0.00000000E+00 4.76077895E-03
 7  7 0.00000000E+00 9.09763755E-03 0.00000000E+00 0.00000000E+00 0.00000000E+00
 7  8 0.00000000E+00 0.00000000E+00-1.02963566E+00 0.00000000E+00 0.00000000E+00
 7  9 2.84768455E-01 0.00000000E+00 0.00000000E+00 1.42422411E-01 0.00000000E+00
 7 10 0.00000000E+00 0.00000000E+00 0.00000000E+00 0.00000000E+00 0.00000000E+00
 7 11 2.99303969E-02 0.00000000E+00 0.00000000E+00 0.00000000E+00 0.00000000E+00
 7 12 0.00000000E+00 1.19702338E-02 0.00000000E+00-1.06454254E-02 0.00000000E+00
 7 13 0.00000000E+00 0.00000000E+00 0.00000000E+00-4.76077895E-03 0.00000000E+00
 7 14-9.09763755E-03 0.00000000E+00 0.00000000E+00
 8  1 3.89524357E-01 1.68062003E-02-1.01453461E-01 0.00000000E+00 0.00000000E+00
 8  2 1.05372931E+00 0.00000000E+00 0.00000000E+00-2.96993553E-01 0.00000000E+00
 8  3 0.00000000E+00-1.06465403E-01-3.52338967E-02-3.52338967E-02 1.68261169E-02
 8  4 0.00000000E+00 0.00000000E+00 0.00000000E+00-1.37916296E-02-1.37916296E-02
 8  5 9.05410197E-04 0.00000000E+00 0.00000000E+00 0.00000000E+00 0.00000000E+00
 8  6 0.00000000E+00 8.12091614E-03 0.00000000E+00 6.01056699E-04 0.00000000E+00
 8  7 6.01056699E-04 0.00000000E+00 0.00000000E+00 0.00000000E+00-3.89524357E-01
 8  8-1.68062003E-02 1.01453461E-01 0.00000000E+00 0.00000000E+00 1.05372931E+00
 8  9 0.00000000E+00 0.00000000E+00-2.96993553E-01 0.00000000E+00 0.00000000E+00
 8 10-1.06465403E-01 3.52338967E-02 3.52338967E-02-1.68261169E-02 0.00000000E+00
 8 11 0.00000000E+00 0.00000000E+00 1.37916296E-02 1.37916296E-02-9.05410197E-04
 8 12 0.00000000E+00 0.00000000E+00 0.00000000E+00 0.00000000E+00 0.00000000E+00
 8 13 8.12091614E-03 0.00000000E+00 6.01056699E-04 0.00000000E+00 6.01056699E-04
 8 14 0.00000000E+00 0.00000000E+00 0.00000000E+00
 9  1-1.12908966E+00-2.26942990E-01 1.32843202E+00 0.00000000E+00 0.00000000E+00
 9  2-2.73460354E-01 0.00000000E+00 0.00000000E+00 4.11825578E-01 0.00000000E+00
 9  3 0.00000000E+00-2.33314897E-02-4.37524106E-02-4.37524106E-02-1.71336304E-01
 9  4 0.00000000E+00 0.00000000E+00 0.00000000E+00 4.84732125E-02 4.84732125E-02
 9  5 1.03757701E-02 0.00000000E+00 0.00000000E+00 0.00000000E+00 0.00000000E+00
 9  6 0.00000000E+00-3.51738320E-02 0.00000000E+00 9.04809096E-03 0.00000000E+00
 9  7 9.04809096E-03 0.00000000E+00 0.00000000E+00 0.00000000E+00-1.12908966E+00
 9  8-2.26942990E-01 1.32843202E+00 0.00000000E+00 0.00000000E+00 2.73460354E-01
 9  9 0.00000000E+00 0.00000000E+00-4.11825578E-01 0.00000000E+00 0.00000000E+00
 9 10 2.33314897E-02-4.37524106E-02-4.37524106E-02-1.71336304E-01 0.00000000E+00
 9 11 0.00000000E+00 0.00000000E+00 4.84732125E-02 4.84732125E-02 1.03757701E-02
 9 12 0.00000000E+00 0.00000000E+00 0.00000000E+00 0.00000000E+00 0.00000000E+00
 9 13 3.51738320E-02 0.00000000E+00-9.04809096E-03 0.00000000E+00-9.04809096E-03
 9 14 0.00000000E+00 0.00000000E+00 0.00000000E+00
10  1 0.00000000E+00 0.00000000E+00 0.00000000E+00 0.00000000E+00 1.02456400E+00
10  2 0.00000000E+00 0.00000000E+00-8.70080262E-01 0.00000000E+00 0.00000000E+00
10  3-2.34369412E-01 0.00000000E+00 0.00000000E+00 0.00000000E+00 0.00000000E+00
10  4 0.00000000E+00 0.00000000E+00-1.97332994E-01 0.00000000E+00 0.00000000E+00
10  5 0.00000000E+00 0.00000000E+00 0.00000000E+00 5.42257100E-04 0.00000000E+00
10  6 3.50396844E-02 0.00000000E+00 1.56702233E-02 0.00000000E+00 0.00000000E+00
10  7 0.00000000E+00 0.00000000E+00-3.28154552E-03 0.00000000E+00 0.00000000E+00
10  8 0.00000000E+00 0.00000000E+00 0.00000000E+00 1.02456400E+00 0.00000000E+00
10  9 0.00000000E+00-8.70080262E-01 0.00000000E+00 0.00000000E+00-2.34369412E-01
10 10 0.00000000E+00 0.00000000E+00 0.00000000E+00 0.00000000E+00 0.00000000E+00
10 11 0.00000000E+00 1.97332994E-01 0.00000000E+00 0.00000000E+00 0.00000000E+00
10 12 0.00000000E+00 0.00000000E+00-5.42257100E-04 0.00000000E+00 3.50396844E-02
10 13 0.00000000E+00 1.56702233E-02 0.00000000E+00 0.00000000E+00 0.00000000E+00
10 14 0.00000000E+00-3.28154552E-03 0.00000000E+00
11  1 0.00000000E+00 0.00000000E+00 0.00000000E+00 1.02456400E+00 0.00000000E+00
11  2 0.00000000E+00-8.70080262E-01 0.00000000E+00 0.00000000E+00-2.34369412E-01
11  3 0.00000000E+00 0.00000000E+00 0.00000000E+00 0.00000000E+00 0.00000000E+00
11  4 0.00000000E+00-1.97332994E-01 0.00000000E+00 0.00000000E+00 0.00000000E+00
11  5 0.00000000E+00 0.00000000E+00 5.42257100E-04 0.00000000E+00 3.50396844E-02
11  6 0.00000000E+00 0.00000000E+00 0.00000000E+00 0.00000000E+00 1.56702233E-02
11  7 0.00000000E+00-3.28154552E-03 0.00000000E+00 0.00000000E+00 0.00000000E+00
11  8 0.00000000E+00 0.00000000E+00 1.02456400E+00 0.00000000E+00 0.00000000E+00
11  9-8.70080262E-01 0.00000000E+00 0.00000000E+00-2.34369412E-01 0.00000000E+00
11 10 0.00000000E+00 0.00000000E+00 0.00000000E+00 0.00000000E+00 0.00000000E+00
11 11 1.97332994E-01 0.00000000E+00 0.00000000E+00 0.00000000E+00 0.00000000E+00
11 12 0.00000000E+00-5.42257100E-04 0.00000000E+00 3.50396844E-02 0.00000000E+00
11 13 0.00000000E+00 0.00000000E+00 0.00000000E+00 1.56702233E-02 0.00000000E+00
11 14-3.28154552E-03 0.00000000E+00 0.00000000E+00
12  1-1.08644315E+00-3.01836319E-01 2.21835164E+00 0.00000000E+00 0.00000000E+00
12  2 3.32104255E-01 0.00000000E+00 0.00000000E+00 2.29402192E-02 0.00000000E+00
12  3 0.00000000E+00-3.79945719E-02-1.02680200E-01-1.02680200E-01-2.03614238E-01
12  4 0.00000000E+00 0.00000000E+00 0.00000000E+00 2.67285538E-02 2.67285538E-02
12  5 1.45261115E-02 0.00000000E+00 0.00000000E+00 0.00000000E+00 0.00000000E+00
12  6 0.00000000E+00-1.56884037E-02 0.00000000E+00-3.64895904E-03 0.00000000E+00
12  7-3.64895904E-03 0.00000000E+00 0.00000000E+00 0.00000000E+00 1.08644315E+00
12  8 3.01836319E-01-2.21835164E+00 0.00000000E+00 0.00000000E+00 3.32104255E-01
12  9 0.00000000E+00 0.00000000E+00 2.29402192E-02 0.00000000E+00 0.00000000E+00
12 10-3.79945719E-02 1.02680200E-01 1.02680200E-01 2.03614238E-01 0.00000000E+00
12 11 0.00000000E+00 0.00000000E+00-2.67285538E-02-2.67285538E-02-1.45261115E-02
12 12 0.00000000E+00 0.00000000E+00 0.00000000E+00 0.00000000E+00 0.00000000E+00
12 13-1.56884037E-02 0.00000000E+00-3.64895904E-03 0.00000000E+00-3.64895904E-03
12 14 0.00000000E+00 0.00000000E+00 0.00000000E+00
13  1 3.33954722E-01 1.32879904E-01-6.75174486E-01 0.00000000E+00 0.00000000E+00
13  2-5.65685791E-01 0.00000000E+00 0.00000000E+00 8.75371108E-01 0.00000000E+00
13  3 0.00000000E+00-7.43471319E-02 1.10378420E-01 1.10378420E-01-1.54308325E-01
13  4 0.00000000E+00 0.00000000E+00 0.00000000E+00 3.49726081E-02 3.49726081E-02
13  5-3.03310757E-02 0.00000000E+00 0.00000000E+00 0.00000000E+00 0.00000000E+00
13  6 0.00000000E+00-1.27246260E-03 0.00000000E+00 2.59999355E-02 0.00000000E+00
13  7 2.59999355E-02 0.00000000E+00 0.00000000E+00 0.00000000E+00 3.33954722E-01
13  8 1.32879904E-01-6.75174486E-01 0.00000000E+00 0.00000000E+00 5.65685791E-01
13  9 0.00000000E+00 0.00000000E+00-8.75371108E-01 0.00000000E+00 0.00000000E+00
13 10 7.43471319E-02 1.10378420E-01 1.10378420E-01-1.54308325E-01 0.00000000E+00
13 11 0.00000000E+00 0.00000000E+00 3.49726081E-02 3.49726081E-02-3.03310757E-02
13 12 0.00000000E+00 0.00000000E+00 0.00000000E+00 0.00000000E+00 0.00000000E+00
13 13 1.27246260E-03 0.00000000E+00-2.59999355E-02 0.00000000E+00-2.59999355E-02
13 14 0.00000000E+00 0.00000000E+00 0.00000000E+00
14  1 0.00000000E+00 0.00000000E+00 0.00000000E+00 0.00000000E+00-2.39648100E-03
14  2 0.00000000E+00 0.00000000E+00-4.03974991E-01 0.00000000E+00 0.00000000E+00
14  3 4.09033257E-01 0.00000000E+00 0.00000000E+00 0.00000000E+00 0.00000000E+00
14  4 0.00000000E+00 0.00000000E+00 5.42054130E-01 0.00000000E+00 0.00000000E+00
14  5 0.00000000E+00 0.00000000E+00 0.00000000E+00 5.38923306E-02 0.00000000E+00
14  6-1.33105922E-01 0.00000000E+00-5.95267780E-02 0.00000000E+00 0.00000000E+00
14  7 0.00000000E+00 0.00000000E+00 1.87651348E-02 0.00000000E+00 0.00000000E+00
14  8 0.00000000E+00 0.00000000E+00 0.00000000E+00-2.39648100E-03 0.00000000E+00
14  9 0.00000000E+00-4.03974991E-01 0.00000000E+00 0.00000000E+00 4.09033257E-01
14 10 0.00000000E+00 0.00000000E+00 0.00000000E+00 0.00000000E+00 0.00000000E+00
14 11 0.00000000E+00-5.42054130E-01 0.00000000E+00 0.00000000E+00 0.00000000E+00
14 12 0.00000000E+00 0.00000000E+00-5.38923306E-02 0.00000000E+00-1.33105922E-01
14 13 0.00000000E+00-5.95267780E-02 0.00000000E+00 0.00000000E+00 0.00000000E+00
14 14 0.00000000E+00 1.87651348E-02 0.00000000E+00
15  1 0.00000000E+00 0.00000000E+00 0.00000000E+00-2.39648100E-03 0.00000000E+00
15  2 0.00000000E+00-4.03974991E-01 0.00000000E+00 0.00000000E+00 4.09033257E-01
15  3 0.00000000E+00 0.00000000E+00 0.00000000E+00 0.00000000E+00 0.00000000E+00
15  4 0.00000000E+00 5.42054130E-01 0.00000000E+00 0.00000000E+00 0.00000000E+00
15  5 0.00000000E+00 0.00000000E+00 5.38923306E-02 0.00000000E+00-1.33105922E-01
15  6 0.00000000E+00 0.00000000E+00 0.00000000E+00 0.00000000E+00-5.95267780E-02
15  7 0.00000000E+00 1.87651348E-02 0.00000000E+00 0.00000000E+00 0.00000000E+00
15  8 0.00000000E+00 0.00000000E+00-2.39648100E-03 0.00000000E+00 0.00000000E+00
15  9-4.03974991E-01 0.00000000E+00 0.00000000E+00 4.09033257E-01 0.00000000E+00
15 10 0.00000000E+00 0.00000000E+00 0.00000000E+00 0.00000000E+00 0.00000000E+00
15 11-5.42054130E-01 0.00000000E+00 0.00000000E+00 0.00000000E+00 0.00000000E+00
15 12 0.00000000E+00-5.38923306E-02 0.00000000E+00-1.33105922E-01 0.00000000E+00
15 13 0.00000000E+00 0.00000000E+00 0.00000000E+00-5.95267780E-02 0.00000000E+00
15 14 1.87651348E-02 0.00000000E+00 0.00000000E+00
16  1 0.00000000E+00 0.00000000E+00 0.00000000E+00-5.72708805E-01 0.00000000E+00
16  2 0.00000000E+00 1.20423329E+00 0.00000000E+00 0.00000000E+00 1.42742781E-02
16  3 0.00000000E+00 0.00000000E+00 0.00000000E+00 0.00000000E+00 0.00000000E+00
16  4 0.00000000E+00-1.09527916E-01 0.00000000E+00 0.00000000E+00 0.00000000E+00
16  5 0.00000000E+00 0.00000000E+00-3.15988463E-02 0.00000000E+00 1.99772886E-02
16  6 0.00000000E+00 0.00000000E+00 0.00000000E+00 0.00000000E+00 8.93411507E-03
16  7 0.00000000E+00-3.30534157E-03 0.00000000E+00 0.00000000E+00 0.00000000E+00
16  8 0.00000000E+00 0.00000000E+00 5.72708805E-01 0.00000000E+00 0.00000000E+00
16  9-1.20423329E+00 0.00000000E+00 0.00000000E+00-1.42742781E-02 0.00000000E+00
16 10 0.00000000E+00 0.00000000E+00 0.00000000E+00 0.00000000E+00 0.00000000E+00
16 11-1.09527916E-01 0.00000000E+00 0.00000000E+00 0.00000000E+00 0.00000000E+00
16 12 0.00000000E+00-3.15988463E-02 0.00000000E+00-1.99772886E-02 0.00000000E+00
16 13 0.00000000E+00 0.00000000E+00 0.00000000E+00-8.93411507E-03 0.00000000E+00
16 14 3.30534157E-03 0.00000000E+00 0.00000000E+00
17  1 0.00000000E+00 0.00000000E+00 0.00000000E+00 0.00000000E+00-5.72708805E-01
17  2 0.00000000E+00 0.00000000E+00 1.20423329E+00 0.00000000E+00 0.00000000E+00
17  3 1.42742781E-02 0.00000000E+00 0.00000000E+00 0.00000000E+00 0.00000000E+00
17  4 0.00000000E+00 0.00000000E+00-1.09527916E-01 0.00000000E+00 0.00000000E+00
17  5 0.00000000E+00 0.00000000E+00 0.00000000E+00-3.15988463E-02 0.00000000E+00
17  6 1.99772886E-02 0.00000000E+00 8.93411507E-03 0.00000000E+00 0.00000000E+00
17  7 0.00000000E+00 0.00000000E+00-3.30534157E-03 0.00000000E+00 0.00000000E+00
17  8 0.00000000E+00 0.00000000E+00 0.00000000E+00 5.72708805E-01 0.00000000E+00
17  9 0.00000000E+00-1.20423329E+00 0.00000000E+00 0.00000000E+00-1.42742781E-02
17 10 0.00000000E+00 0.00000000E+00 0.00000000E+00 0.00000000E+00 0.00000000E+00
17 11 0.00000000E+00-1.09527916E-01 0.00000000E+00 0.00000000E+00 0.00000000E+00
17 12 0.00000000E+00 0.00000000E+00-3.15988463E-02 0.00000000E+00-1.99772886E-02
17 13 0.00000000E+00-8.93411507E-03 0.00000000E+00 0.00000000E+00 0.00000000E+00
17 14 0.00000000E+00 3.30534157E-03 0.00000000E+00
18  1 0.00000000E+00 0.00000000E+00 0.00000000E+00 0.00000000E+00 0.00000000E+00
18  2 0.00000000E+00 0.00000000E+00 0.00000000E+00 0.00000000E+00 0.00000000E+00
18  3 0.00000000E+00 0.00000000E+00 0.00000000E+00 0.00000000E+00 0.00000000E+00
18  4 6.53916874E-01 0.00000000E+00 0.00000000E+00 0.00000000E+00 0.00000000E+00
18  5 0.00000000E+00 4.28503561E-02 0.00000000E+00 0.00000000E+00 0.00000000E+00
18  6 0.00000000E+00 0.00000000E+00 0.00000000E+00 0.00000000E+00 0.00000000E+00
18  7 0.00000000E+00 0.00000000E+00 0.00000000E+00 4.91511161E-02 0.00000000E+00
18  8 0.00000000E+00 0.00000000E+00 0.00000000E+00 0.00000000E+00 0.00000000E+00
18  9 0.00000000E+00 0.00000000E+00 0.00000000E+00 0.00000000E+00 0.00000000E+00
18 10 0.00000000E+00 0.00000000E+00 0.00000000E+00 0.00000000E+00 6.53916874E-01
18 11 0.00000000E+00 0.00000000E+00 0.00000000E+00 0.00000000E+00 0.00000000E+00
18 12 4.28503561E-02 0.00000000E+00 0.00000000E+00 0.00000000E+00 0.00000000E+00
18 13 0.00000000E+00 0.00000000E+00 0.00000000E+00 0.00000000E+00 0.00000000E+00
18 14 0.00000000E+00 0.00000000E+00-4.91511161E-02
19  1 0.00000000E+00 0.00000000E+00 0.00000000E+00 0.00000000E+00 0.00000000E+00
19  2 0.00000000E+00 0.00000000E+00 0.00000000E+00 0.00000000E+00 0.00000000E+00
19  3 0.00000000E+00 0.00000000E+00 5.66308625E-01-5.66308625E-01 0.00000000E+00
19  4 0.00000000E+00 0.00000000E+00 0.00000000E+00 3.71094970E-02-3.71094970E-02
19  5 0.00000000E+00 0.00000000E+00 0.00000000E+00 0.00000000E+00 0.00000000E+00
19  6 0.00000000E+00 0.00000000E+00 0.00000000E+00 4.25661152E-02 0.00000000E+00
19  7-4.25661152E-02 0.00000000E+00 0.00000000E+00 0.00000000E+00 0.00000000E+00
19  8 0.00000000E+00 0.00000000E+00 0.00000000E+00 0.00000000E+00 0.00000000E+00
19  9 0.00000000E+00 0.00000000E+00 0.00000000E+00 0.00000000E+00 0.00000000E+00
19 10 0.00000000E+00 5.66308625E-01-5.66308625E-01 0.00000000E+00 0.00000000E+00
19 11 0.00000000E+00 0.00000000E+00 3.71094970E-02-3.71094970E-02 0.00000000E+00
19 12 0.00000000E+00 0.00000000E+00 0.00000000E+00 0.00000000E+00 0.00000000E+00
19 13 0.00000000E+00 0.00000000E+00-4.25661152E-02 0.00000000E+00 4.25661152E-02
19 14 0.00000000E+00 0.00000000E+00 0.00000000E+00
20  1 6.51923108E-01-6.23688210E-02 9.72553642E-02 0.00000000E+00 0.00000000E+00
20  2 1.05394232E+00 0.00000000E+00 0.00000000E+00-5.43641656E-01 0.00000000E+00
20  3 0.00000000E+00-6.82657107E-01 3.12018779E-02 3.12018779E-02-7.15776754E-01
20  4 0.00000000E+00 0.00000000E+00 0.00000000E+00-1.46573802E-02-1.46573802E-02
20  5-1.10724051E-01 0.00000000E+00 0.00000000E+00 0.00000000E+00 0.00000000E+00
20  6 0.00000000E+00 1.09972406E-01 0.00000000E+00 6.58976674E-02 0.00000000E+00
20  7 6.58976674E-02 0.00000000E+00 0.00000000E+00 0.00000000E+00 6.51923108E-01
20  8-6.23688210E-02 9.72553642E-02 0.00000000E+00 0.00000000E+00-1.05394232E+00
20  9 0.00000000E+00 0.00000000E+00 5.43641656E-01 0.00000000E+00 0.00000000E+00
20 10 6.82657107E-01 3.12018779E-02 3.12018779E-02-7.15776754E-01 0.00000000E+00
20 11 0.00000000E+00 0.00000000E+00-1.46573802E-02-1.46573802E-02-1.10724051E-01
20 12 0.00000000E+00 0.00000000E+00 0.00000000E+00 0.00000000E+00 0.00000000E+00
20 13-1.09972406E-01 0.00000000E+00-6.58976674E-02 0.00000000E+00-6.58976674E-02
20 14 0.00000000E+00 0.00000000E+00 0.00000000E+00
21  1-5.00383704E-01-1.66764068E-01 2.46135292E+00 0.00000000E+00 0.00000000E+00
21  2-4.25433025E-01 0.00000000E+00 0.00000000E+00 1.95657436E+00 0.00000000E+00
21  3 0.00000000E+00-3.71099601E-02-2.19723236E-02-2.19723236E-02-3.77887079E-01
21  4 0.00000000E+00 0.00000000E+00 0.00000000E+00 5.19391472E-02 5.19391472E-02
21  5-2.66741510E-02 0.00000000E+00 0.00000000E+00 0.00000000E+00 0.00000000E+00
21  6 0.00000000E+00 6.27533818E-03 0.00000000E+00 1.51475310E-02 0.00000000E+00
21  7 1.51475310E-02 0.00000000E+00 0.00000000E+00 0.00000000E+00 5.00383704E-01
21  8 1.66764068E-01-2.46135292E+00 0.00000000E+00 0.00000000E+00-4.25433025E-01
21  9 0.00000000E+00 0.00000000E+00 1.95657436E+00 0.00000000E+00 0.00000000E+00
21 10-3.71099601E-02 2.19723236E-02 2.19723236E-02 3.77887079E-01 0.00000000E+00
21 11 0.00000000E+00 0.00000000E+00-5.19391472E-02-5.19391472E-02 2.66741510E-02
21 12 0.00000000E+00 0.00000000E+00 0.00000000E+00 0.00000000E+00 0.00000000E+00
21 13 6.27533818E-03 0.00000000E+00 1.51475310E-02 0.00000000E+00 1.51475310E-02
21 14 0.00000000E+00 0.00000000E+00 0.00000000E+00
22  1 0.00000000E+00 0.00000000E+00 0.00000000E+00 0.00000000E+00 0.00000000E+00
22  2 0.00000000E+00 0.00000000E+00 0.00000000E+00 0.00000000E+00 0.00000000E+00
22  3 0.00000000E+00 0.00000000E+00 0.00000000E+00 0.00000000E+00 0.00000000E+00
22  4 7.02010764E-01 0.00000000E+00 0.00000000E+00 0.00000000E+00 0.00000000E+00
22  5 0.00000000E+00 6.28023570E-02 0.00000000E+00 0.00000000E+00 0.00000000E+00
22  6 0.00000000E+00 0.00000000E+00 0.00000000E+00 0.00000000E+00 0.00000000E+00
22  7 0.00000000E+00 0.00000000E+00 0.00000000E+00 1.66473173E-02 0.00000000E+00
22  8 0.00000000E+00 0.00000000E+00 0.00000000E+00 0.00000000E+00 0.00000000E+00
22  9 0.00000000E+00 0.00000000E+00 0.00000000E+00 0.00000000E+00 0.00000000E+00
22 10 0.00000000E+00 0.00000000E+00 0.00000000E+00 0.00000000E+00-7.02010764E-01
22 11 0.00000000E+00 0.00000000E+00 0.00000000E+00 0.00000000E+00 0.00000000E+00
22 12-6.28023570E-02 0.00000000E+00 0.00000000E+00 0.00000000E+00 0.00000000E+00
22 13 0.00000000E+00 0.00000000E+00 0.00000000E+00 0.00000000E+00 0.00000000E+00
22 14 0.00000000E+00 0.00000000E+00 1.66473173E-02
23  1 0.00000000E+00 0.00000000E+00 0.00000000E+00 0.00000000E+00 0.00000000E+00
23  2 0.00000000E+00 0.00000000E+00 0.00000000E+00 0.00000000E+00 0.00000000E+00
23  3 0.00000000E+00 0.00000000E+00 6.07959155E-01-6.07959155E-01 0.00000000E+00
23  4 0.00000000E+00 0.00000000E+00 0.00000000E+00 5.43884366E-02-5.43884366E-02
23  5 0.00000000E+00 0.00000000E+00 0.00000000E+00 0.00000000E+00 0.00000000E+00
23  6 0.00000000E+00 0.00000000E+00 0.00000000E+00 1.44169997E-02 0.00000000E+00
23  7-1.44169997E-02 0.00000000E+00 0.00000000E+00 0.00000000E+00 0.00000000E+00
23  8 0.00000000E+00 0.00000000E+00 0.00000000E+00 0.00000000E+00 0.00000000E+00
23  9 0.00000000E+00 0.00000000E+00 0.00000000E+00 0.00000000E+00 0.00000000E+00
23 10 0.00000000E+00-6.07959155E-01 6.07959155E-01 0.00000000E+00 0.00000000E+00
23 11 0.00000000E+00 0.00000000E+00-5.43884366E-02 5.43884366E-02 0.00000000E+00
23 12 0.00000000E+00 0.00000000E+00 0.00000000E+00 0.00000000E+00 0.00000000E+00
23 13 0.00000000E+00 0.00000000E+00 1.44169997E-02 0.00000000E+00-1.44169997E-02
23 14 0.00000000E+00 0.00000000E+00 0.00000000E+00
24  1 0.00000000E+00 0.00000000E+00 0.00000000E+00 0.00000000E+00-3.86539417E-01
24  2 0.00000000E+00 0.00000000E+00 5.39140339E-01 0.00000000E+00 0.00000000E+00
24  3 3.55989439E-01 0.00000000E+00 0.00000000E+00 0.00000000E+00 0.00000000E+00
24  4 0.00000000E+00 0.00000000E+00 8.53323626E-01 0.00000000E+00 0.00000000E+00
24  5 0.00000000E+00 0.00000000E+00 0.00000000E+00 7.72211763E-02 0.00000000E+00
24  6-7.09839294E-02 0.00000000E+00-3.17449783E-02 0.00000000E+00 0.00000000E+00
24  7 0.00000000E+00 0.00000000E+00-3.88830729E-02 0.00000000E+00 0.00000000E+00
24  8 0.00000000E+00 0.00000000E+00 0.00000000E+00 3.86539417E-01 0.00000000E+00
24  9 0.00000000E+00-5.39140339E-01 0.00000000E+00 0.00000000E+00-3.55989439E-01
24 10 0.00000000E+00 0.00000000E+00 0.00000000E+00 0.00000000E+00 0.00000000E+00
24 11 0.00000000E+00 8.53323626E-01 0.00000000E+00 0.00000000E+00 0.00000000E+00
24 12 0.00000000E+00 0.00000000E+00 7.72211763E-02 0.00000000E+00 7.09839294E-02
24 13 0.00000000E+00 3.17449783E-02 0.00000000E+00 0.00000000E+00 0.00000000E+00
24 14 0.00000000E+00 3.88830729E-02 0.00000000E+00
25  1 0.00000000E+00 0.00000000E+00 0.00000000E+00-3.86539417E-01 0.00000000E+00
25  2 0.00000000E+00 5.39140339E-01 0.00000000E+00 0.00000000E+00 3.55989439E-01
25  3 0.00000000E+00 0.00000000E+00 0.00000000E+00 0.00000000E+00 0.00000000E+00
25  4 0.00000000E+00 8.53323626E-01 0.00000000E+00 0.00000000E+00 0.00000000E+00
25  5 0.00000000E+00 0.00000000E+00 7.72211763E-02 0.00000000E+00-7.09839294E-02
25  6 0.00000000E+00 0.00000000E+00 0.00000000E+00 0.00000000E+00-3.17449783E-02
25  7 0.00000000E+00-3.88830729E-02 0.00000000E+00 0.00000000E+00 0.00000000E+00
25  8 0.00000000E+00 0.00000000E+00 3.86539417E-01 0.00000000E+00 0.00000000E+00
25  9-5.39140339E-01 0.00000000E+00 0.00000000E+00-3.55989439E-01 0.00000000E+00
25 10 0.00000000E+00 0.00000000E+00 0.00000000E+00 0.00000000E+00 0.00000000E+00
25 11 8.53323626E-01 0.00000000E+00 0.00000000E+00 0.00000000E+00 0.00000000E+00
25 12 0.00000000E+00 7.72211763E-02 0.00000000E+00 7.09839294E-02 0.00000000E+00
25 13 0.00000000E+00 0.00000000E+00 0.00000000E+00 3.17449783E-02 0.00000000E+00
25 14 3.88830729E-02 0.00000000E+00 0.00000000E+00
26  1 2.67554227E+00-8.70348428E-01 1.17924944E+00 0.00000000E+00 0.00000000E+00
26  2 4.70606151E-01 0.00000000E+00 0.00000000E+00 3.07243745E-01 0.00000000E+00
26  3 0.00000000E+00-1.05611014E+00-1.57290989E+00-1.57290989E+00-1.07270135E+00
26  4 0.00000000E+00 0.00000000E+00 0.00000000E+00-3.41779649E-01-3.41779649E-01
26  5-2.70056279E-01 0.00000000E+00 0.00000000E+00 0.00000000E+00 0.00000000E+00
26  6 0.00000000E+00 3.12298100E-01 0.00000000E+00 9.69309659E-02 0.00000000E+00
26  7 9.69309659E-02 0.00000000E+00 0.00000000E+00 0.00000000E+00 2.67554227E+00
26  8-8.70348428E-01 1.17924944E+00 0.00000000E+00 0.00000000E+00-4.70606151E-01
26  9 0.00000000E+00 0.00000000E+00-3.07243745E-01 0.00000000E+00 0.00000000E+00
26 10 1.05611014E+00-1.57290989E+00-1.57290989E+00-1.07270135E+00 0.00000000E+00
26 11 0.00000000E+00 0.00000000E+00-3.41779649E-01-3.41779649E-01-2.70056279E-01
26 12 0.00000000E+00 0.00000000E+00 0.00000000E+00 0.00000000E+00 0.00000000E+00