 $CONTRL SCFTYP=RHF MULT=1 ICHARG=0 RUNTYP=ENERGY MAXIT=70 ECP=READ $END
 $CONTRL UNITS=BOHR $END
 $SYSTEM KDIAG=3 $END
 $SCF DIRSCF=.T. RSTRCT=.T. SOSCF=.F. MVOQ=2 $END
 $DATA

C1
 H 1  0.0  0.0  -0.5509584635
S 7 1.
   1       25.967331          3.54063093E-03
   2       9.1676598          1.67008793E-02
   3       2.8460805          6.08226508E-02
   4       1.0048708          1.72330686E-01
   5       0.38502821         3.53696261E-01
   6       0.16005760         3.89585261E-01
   7       0.69101229E-01     1.46735635E-01
S   1
  1       0.3258000000          1.000000000
S   1
  1       0.1027000000          1.000000000
P 4 1.
  1      18.1264860      0.002058194485
  2       4.4559865      0.015034403850
  3       1.1582862      0.151153254935
  4       0.3505376      0.890125250947
P 1 1.
  1       .18            1.

 H 1  0.0  0.0  0.5519584635
S 7 1.
   1       25.967331          3.54063093E-03
   2       9.1676598          1.67008793E-02
   3       2.8460805          6.08226508E-02
   4       1.0048708          1.72330686E-01
   5       0.38502821         3.53696261E-01
   6       0.16005760         3.89585261E-01
   7       0.69101229E-01     1.46735635E-01
S   1
  1       0.3258000000          1.000000000
S   1
  1       0.1027000000          1.000000000
P 4 1.
  1      18.1264860      0.002058194485
  2       4.4559865      0.015034403850
  3       1.1582862      0.151153254935
  4       0.3505376      0.890125250947
P 1 1.
  1       .18            1.

 $END
 $ECP
H-TR4 GEN 0   1
6    P
 -9.39168039 2  27.916162
 -0.536989635 2  394.363177
  0.717083592 2  15.663672
 -1.25803771 2  90.1659831
 -0.267890288 2  2232.29185
  1. 1  21.2435951
1    S
   0.        2   1.
H-TR4
 $END

