
#(C) 2015 by Fachinformationszentrum Karlsruhe.  All rights reserved.
data_28737-ICSD
_database_code_ICSD 28737
_audit_creation_date 1980-01-01
_chemical_name_systematic 'Copper(I) gallium selenide'
_chemical_formula_structural 'Cu Ga Se2'
_chemical_formula_sum 'Cu1 Ga1 Se2'
_chemical_name_structure_type CuFeS2
_exptl_crystal_density_diffrn 5.6
_publ_section_title 'Ueber einige ternaere Chalkogenide mit Chalkopyritstruktur'
loop_
_citation_id
_citation_journal_full
_citation_year
_citation_journal_volume
_citation_page_first
_citation_page_last
_citation_journal_id_ASTM
primary 'Zeitschrift fuer Anorganische und Allgemeine Chemie (1950) (DE)' 1953
271 153 170 ZAACAB
loop_
_publ_author_name
'Hahn, H.'
'Frank, G.'
'Klingler, W.'
'Meyer, A.D.'
'Stoerger, G.'
_cell_length_a 5.607(5)
_cell_length_b 5.607(5)
_cell_length_c 10.99(1)
_cell_angle_alpha 90.
_cell_angle_beta 90.
_cell_angle_gamma 90.
_cell_volume 345.51
_cell_formula_units_Z 4
_symmetry_space_group_name_H-M 'I -4 2 d'
_symmetry_Int_Tables_number 122
loop_
_symmetry_equiv_pos_site_id
_symmetry_equiv_pos_as_xyz
1 '-y, -x+1/2, z+1/4'
2 'y, -x, -z'
3 'y, x+1/2, z+1/4'
4 '-y, x, -z'
5 'x, -y+1/2, -z+1/4'
6 '-x, -y, z'
7 '-x, y+1/2, -z+1/4'
8 'x, y, z'
9 '-y+1/2, -x, z+3/4'
10 'y+1/2, -x+1/2, -z+1/2'
11 'y+1/2, x, z+3/4'
12 '-y+1/2, x+1/2, -z+1/2'
13 'x+1/2, -y, -z+3/4'
14 '-x+1/2, -y+1/2, z+1/2'
15 '-x+1/2, y, -z+3/4'
16 'x+1/2, y+1/2, z+1/2'
loop_
_atom_type_symbol
_atom_type_oxidation_number
Cu1+ 1
Ga3+ 3
Se2- -2
loop_
_atom_site_label
_atom_site_type_symbol
_atom_site_symmetry_multiplicity
_atom_site_Wyckoff_symbol
_atom_site_fract_x
_atom_site_fract_y
_atom_site_fract_z
_atom_site_B_iso_or_equiv
_atom_site_occupancy
_atom_site_attached_hydrogens
Cu1 Cu1+ 4 a 0 0 0 . 1. 0
Ga1 Ga3+ 4 b 0 0 0.5 . 1. 0
Se1 Se2- 8 d 0.25 0.25 0.125 . 1. 0
#End of TTdata_28737-ICSD