 $CONTRL SCFTYP=ROHF MULT=4 ECP=READ $END
 $CONTRL MAXIT=30 ICHARG=2  $END
 $GUESS GUESS=HCORE $END
 $DATA
N
C1
N    7.    0.00     0.00     0.0
  P   8
  1       22.418770          0.20196617E-02
  2       14.645104         -0.65822154E-02
  3       10.880627          0.39232615E-01
  4       4.5064673          0.11100382
  5       1.8477713          0.27851099
  6      0.76760375          0.44553038
  7      0.32683185          0.28979886
  8      0.14013694          0.30348772E-01
 
 $END
 $ECP
N-LN2 GEN 2 1
 3     P
  5.         1    7.348473
  36.742369  3    7.348473
  -29.945309 2    7.239787   
 2     S-P
  40.726174  2    7.186794
  -22.059630 4    6.279885
 $END
