 $CONTRL SCFTYP=RHF CITYP=NONE MULT=1 ECP=READ ISPHER=1 $END
 $SYSTEM MWORDS=60 KDIAG=3 $END
 $SCF DIIS=.F. RSTRCT=.T. MVOQ=10 $END
 $DATA
N2 experimental bond length
C1
N    7.    0.00     0.00     0.54875
 S   8
  1       47.060276          0.10656288E-02
  2       30.249283         -0.48950333E-02
  3       17.336468          0.12675333E-01
  4       5.0682259         -0.21338198E-01
  5       4.4719543         -0.15430793
  6      0.94583613          0.37090391
  7      0.43119121          0.57003045
  8      0.19367546          0.18613993
 S   1
  1        1.293000000          1.000000000
 S   1
  1       0.1787000000          1.000000000
 P   8
  1       26.800018          0.55202533E-03
  2       10.427275          0.21705279E-01
  3       10.711001          0.95714470E-02
  4       4.4962521          0.94816543E-01
  5       2.0193243          0.19748625
  6      0.91650265          0.36549339
  7      0.40482002          0.37327099
  8      0.17522678          0.14081325
 P   1
  1       0.5550000000          1.000000000
 P   1
  1       0.1725000000          1.000000000
 D   1
  1        1.654000000          1.000000000    
 D   1
  1       0.4690000000          1.000000000    
 F   1
  1        1.093000000          1.000000000    

N    7.    0.00     0.00     -0.54875
 S   8
  1       47.060276          0.10656288E-02
  2       30.249283         -0.48950333E-02
  3       17.336468          0.12675333E-01
  4       5.0682259         -0.21338198E-01
  5       4.4719543         -0.15430793
  6      0.94583613          0.37090391
  7      0.43119121          0.57003045
  8      0.19367546          0.18613993
 S   1
  1        1.293000000          1.000000000
 S   1
  1       0.1787000000          1.000000000
 P   8
  1       26.800018          0.55202533E-03
  2       10.427275          0.21705279E-01
  3       10.711001          0.95714470E-02
  4       4.4962521          0.94816543E-01
  5       2.0193243          0.19748625
  6      0.91650265          0.36549339
  7      0.40482002          0.37327099
  8      0.17522678          0.14081325
 P   1
  1       0.5550000000          1.000000000
 P   1
  1       0.1725000000          1.000000000
 D   1
  1        1.654000000          1.000000000
 D   1
  1       0.4690000000          1.000000000
 F   1
  1        1.093000000          1.000000000
 
 $END
 $ECP
N-LN2 GEN 2 1
 3     P
  5.         1    7.348473
  36.742369  3    7.348473
  -29.945309 2    7.239787   
 3     S-P
  60.6949292 2  7.04441431
 -27.5668222 2  5.93242526
  7.59799606 2  6.67558402
N-LN2
 $END
