!Yoon ECP on Titanium, Lester on Oxygen
 $CONTRL SCFTYP=ROHF MULT=1 ICHARG=0 RUNTYP=ENERGY MAXIT=70 ECP=READ $END
 $SYSTEM KDIAG=3 $END
 $SCF DIRSCF=.T. SOSCF=.F.  $END
 $DATA

C1
C 6 0. 0. 0.
 S   5
   1       8.1380377          0.11795918E-01
   2       3.3151758         -0.15198125   
   3      0.66827631          0.27552348   
   4      0.29176766          0.54864514   
   5      0.11411349          0.30121511
 S   1
  1       0.9059000000          1.000000000   
 S   1
  1       0.1285000000          1.000000000   
 P   5
   1       8.5281305          0.23512401E-01
   2       2.9014509          0.11648574   
   3      0.94312090          0.32777384   
   4      0.31558555          0.49260154   
   5      0.10393611          0.27312428    
 P   1
  1       0.3827000000          1.000000000   
 P   1
  1       0.1209000000          1.000000000   
 D   1
  1       0.5500000000          1.000000000   

H           1.0   -.6286475137   -.6286475137    .6286475139
S 7 1.
   1       25.967331          3.54063093E-03
   2       9.1676598          1.67008793E-02
   3       2.8460805          6.08226508E-02
   4       1.0048708          1.72330686E-01
   5       0.38502821         3.53696261E-01
   6       0.16005760         3.89585261E-01
   7       0.69101229E-01     1.46735635E-01
S   1
  1       0.3258000000          1.000000000
S   1
  1       0.1027000000          1.000000000
P 4 1.
  1      18.1264860      0.002058194485
  2       4.4559865      0.015034403850
  3       1.1582862      0.151153254935
  4       0.3505376      0.890125250947
P 1 1.
  1       .18            1.

H           1.0   -.6286475137    .6286475137   -.6286475139
S 7 1.
   1       25.967331          3.54063093E-03
   2       9.1676598          1.67008793E-02
   3       2.8460805          6.08226508E-02
   4       1.0048708          1.72330686E-01
   5       0.38502821         3.53696261E-01
   6       0.16005760         3.89585261E-01
   7       0.69101229E-01     1.46735635E-01
S   1
  1       0.3258000000          1.000000000
S   1
  1       0.1027000000          1.000000000
P 4 1.
  1      18.1264860      0.002058194485
  2       4.4559865      0.015034403850
  3       1.1582862      0.151153254935
  4       0.3505376      0.890125250947
P 1 1.
  1       .18            1.

H           1.0    .6286475137   -.6286475137   -.6286475139
S 7 1.
   1       25.967331          3.54063093E-03
   2       9.1676598          1.67008793E-02
   3       2.8460805          6.08226508E-02
   4       1.0048708          1.72330686E-01
   5       0.38502821         3.53696261E-01
   6       0.16005760         3.89585261E-01
   7       0.69101229E-01     1.46735635E-01
S   1
  1       0.3258000000          1.000000000
S   1
  1       0.1027000000          1.000000000
P 4 1.
  1      18.1264860      0.002058194485
  2       4.4559865      0.015034403850
  3       1.1582862      0.151153254935
  4       0.3505376      0.890125250947
P 1 1.
  1       .18            1.

H           1.0    .6286475137    .6286475137    .6286475139
S 7 1.
   1       25.967331          3.54063093E-03
   2       9.1676598          1.67008793E-02
   3       2.8460805          6.08226508E-02
   4       1.0048708          1.72330686E-01
   5       0.38502821         3.53696261E-01
   6       0.16005760         3.89585261E-01
   7       0.69101229E-01     1.46735635E-01
S   1
  1       0.3258000000          1.000000000
S   1
  1       0.1027000000          1.000000000
P 4 1.
  1      18.1264860      0.002058194485
  2       4.4559865      0.015034403850
  3       1.1582862      0.151153254935
  4       0.3505376      0.890125250947
P 1 1.
  1       .18            1.

 $END
 $ECP
C-LES GEN 2 1
7       P
 -16.7554933 2   7.71902471
 -0.318937855 2   2184.3154
 -2.90449512 2   20.7770051
 -1.24269724 2   76.3948299
 -0.601986071 2   351.761231
  0.218138855 2   3.95786259
  4. 1   5.992468
3     S-P
  27.006964 2   5.74118955
  8.57269969 2   5.12564415
 -6.3364597 2   4.68309865
H-TR4 GEN 0 1
6    P
 -9.39168039 2  27.916162
 -0.536989635 2  394.363177
  0.717083592 2  15.663672
 -1.25803771 2  90.1659831
 -0.267890288 2  2232.29185
  1. 1  21.2435951
1    S
   0.        2   1.
H-TR4
H-TR4
H-TR4
 $END

