
NumberOfAtoms 2
SpinPolarized yes
NumberOfSpecies 1
WriteDenchar .true.

%block ChemicalSpeciesLabel
 1  14  Si
%endblock ChemicalSpeciesLabel
#NetCharge 2

#PAO.BasisSize       DZP
#PAO.EnergyShift 50 meV
#PAO.SplitNorm 0.5
#PAO.BasisSize  SZ
#PAO.EnergyShift     50 meV
%block PAO.Basis
Si   3  splitgauss   -0.46385
 n=3   0   2   E    45.42551     0.
     9.00000     7.37722
     1.00000     1.00000
 n=3   1   2   E    44.69636     0.
     9.00000     7.09123
     1.00000     1.00000
 n=3   2   1   E    41.96912     0.
     9.55426
     1.00000
#Si 3
#  0 2  E 1 4.5
#    9.5 7.5
#  1 2 E 1 4.5
#    9.5 7.5
#  2 1 E 1 4.5
#    8.5
%endblock PAO.Basis
MeshCutoff          100.0 Ry

MaxSCFIterations    100  
DM.MixingWeight      0.3 
DM.NumberPulay       3  
DM.Tolerance         1.d-3
%block WaveFuncKPoints
0.0 0.0 0.0
%endblock WaveFuncKPoints
LongOutput .true.
LatticeConstant 10.0 Ang
%block AtomicCoordinatesAndAtomicSpecies
0. 0. 0. 1
0. 0. 4.40  1
%endblock AtomicCoordinatesAndAtomicSpecies
